%nproc=8
%mem=4000MB
#opt=(noeigen,calcfc,ts,recalc=5,maxcyc=200) freq B3LYP/SVP em=GD3BJ

ts-4693.gjf

0 1
O  1.53476229347543  -0.50694905014326  -7.34959825968108
H  1.71533595653123  0.02479386854734  -8.11639185776142
Cl  0.06195125902167  -2.64088169730480  -7.44209039249498

