%nproc=8
%mem=4000MB
#opt=(noeigen,calcfc,ts,recalc=5,maxcyc=200) freq B3LYP/SVP em=GD3BJ

ts-1789.gjf

0 1
O  3.17718801865416  -4.97710986571601  1.41089022955090
Cl  2.76676367973120  -4.89405577113194  2.98092710121940
H  2.57992663927214  -5.55093865185113  0.91839702382318

