%nproc=8
%mem=4000MB
#opt=(noeigen,calcfc,ts,recalc=5,maxcyc=200) freq B3LYP/SVP em=GD3BJ

ts-3619.gjf

0 1
O  2.51733868259081  0.56157701215390  -1.40175500545781
Cl  1.10791296799879  1.51768538831452  -1.33835166265763
H  3.06496640034182  0.77676479271099  -2.21148909354614

