%nproc=8
%mem=4000MB
#opt=(noeigen,calcfc,ts,recalc=5,maxcyc=200) freq B3LYP/SVP em=GD3BJ

ts-1416.gjf

0 1
O  -0.79696520849540  -3.24350732679277  -7.40282542489376
Cl  -0.84143363239202  -3.76747080617131  -5.60615591803718
H  -0.29598784595126  -2.40851586347049  -7.31054049765618

