%nproc=8
%mem=4000MB
#opt=(noeigen,calcfc,ts,recalc=5,maxcyc=200) freq B3LYP/SVP em=GD3BJ

ts-1476.gjf

0 1
O  2.10804347113018  -4.18829688206590  -2.78957618170339
Cl  -0.94754971248166  -5.38987595909619  -3.89620494106557
H  2.57919499495938  -3.33780130070057  -2.65925599491891

