%nproc=8
%mem=4000MB
#opt=(noeigen,calcfc,ts,recalc=5,maxcyc=200) freq B3LYP/SVP em=GD3BJ

ts-277.gjf

0 1
O  0.55363528073429  -3.03409337373222  -3.39900201492094
Cl  -2.90834404900852  -5.52359676923032  -2.98170565005265
H  -0.22860883601674  -3.56446684324741  -3.61956738997402

