%nproc=8
%mem=4000MB
#opt=(noeigen,calcfc,ts,recalc=5,maxcyc=200) freq B3LYP/SVP em=GD3BJ

ts-1554.gjf

0 1
Cl  -2.98045831915413  4.20953164589174  -3.92132660938961
Cl  -1.46342804738119  3.36053573021088  -2.65753119094049

