%nproc=8
%mem=4000MB
#opt=(noeigen,calcfc,ts,recalc=5,maxcyc=200) freq B3LYP/SVP em=GD3BJ

ts-652.gjf

0 1
O  0.13115642356337  4.42917585338061  3.18181264223115
Cl  0.97811191812556  3.77291713790079  1.53861164890998
H  0.80792846060357  4.44751559427538  3.85953929454143

