%nproc=8
%mem=4000MB
#opt=(noeigen,calcfc,ts,recalc=5,maxcyc=200) freq B3LYP/SVP em=GD3BJ

ts-2271.gjf

0 2
O  -1.68303420345778  -2.66818091618587  -5.03764344865873
H  -0.01858073176076  -5.60287368377027  -3.43775972242451
Cl  0.91418130974658  -6.33906453957678  -3.67638691877262
C  1.16730822468406  -0.29304175265578  3.65108913570257
C  0.65414584028057  0.96015199627760  4.02681181150395
C  -0.01800731958463  1.74758446238072  3.13563565335086
C  0.13218020562872  1.42963723605937  1.79282544387920
C  0.52961177119379  0.08816316755758  1.48050998798855
C  1.08261269517415  -0.67839986476731  2.42279685833115
H  0.48686492912259  1.27877730429452  5.03605165519613
H  -0.46054820018146  2.66284477445236  3.48429978151843
C  -1.10785259605057  0.00926803005225  -1.93645708674890
C  -1.94125001016669  -1.14536168038258  -1.78472858982176
C  -0.49789470774485  0.18027179346444  -3.35288016047493
C  -2.00779022112780  -2.17244905604718  -2.74702863004740
H  -2.23832393987740  -1.34055904417282  -0.78995901352468
C  -0.88177460105182  -0.63816169447651  -4.35647339940975
C  -1.56539699075913  -1.84478787333736  -4.10513736230293
H  -2.71376986128014  -2.85454834576667  -2.40401761786036
H  -0.83180036444982  -0.54120834605195  -5.45063526200951
Cl  2.22966323590578  -1.07873087847904  4.58726702409727
N  -0.19350166672396  2.09520560155393  0.67362690121523
C  -1.09436398061243  1.66884753350230  -0.21607900786783
O  -2.12189533277266  2.32303067537463  -0.31181092660749
N  -0.94006861325559  0.51314384712724  -0.76276098149549
H  -0.00085687459938  1.18829670092849  -3.29189788611810
H  0.89457422556298  -0.09265881765807  0.47635797085059
Cl  2.17915734771580  -1.81085945106907  1.64172289274050

