%nproc=8
%mem=4000MB
#opt=(noeigen,calcfc,ts,recalc=5,maxcyc=200) freq B3LYP/SVP em=GD3BJ

ts-1440.gjf

0 1
O  -3.82405067006521  0.45896526849112  -4.60613291604896
Cl  0.41039895002470  3.41389804835349  -2.46483666035349
H  -3.61995176185264  -0.22871791112831  -5.27279366212646

