%nproc=8
%mem=4000MB
#opt=(noeigen,calcfc,ts,recalc=5,maxcyc=200) freq B3LYP/SVP em=GD3BJ

ts-642.gjf

0 1
O  0.16806152782717  4.23440460202279  2.59135059653063
Cl  2.01837925463869  3.27675932721328  1.68754919131060
H  -0.36484140620901  4.00653926264327  1.77355727102895

