%nproc=8
%mem=4000MB
#opt=(noeigen,calcfc,ts,recalc=5,maxcyc=200) freq B3LYP/SVP em=GD3BJ

ts-3179.gjf

0 2
O  -2.36835195791358  3.16186773806023  2.32864174201399
H  -2.20295152713680  2.24279085515646  2.12779283307548
C  -1.99111231726235  4.15828602142657  0.35706778001433
C  -1.19899990122110  3.77498874539431  1.54429434413516
C  -0.13241080448750  2.65570051519106  1.42903457333639
C  -0.16571288899001  1.93042089421456  0.22842482398667
C  -1.04674466742749  2.39916999199224  -0.83602739870918
C  -1.96989744984412  3.38019477391617  -0.78513525637212
H  -0.89851886233684  4.45437130590286  2.29383737310758
H  0.75908632032417  2.69972189116422  2.03630591064417
C  3.49805398936471  0.75127950989949  0.11304794408294
C  3.48049552415743  2.12154253506206  0.51783800586353
C  4.39366019299993  0.00957505337987  0.99923779758537
C  3.90355433245723  2.48845438112123  1.75397392189720
H  2.98599979896875  2.79548301048941  -0.17035733288802
C  5.04441344602608  0.37802081530250  2.18703459971035
C  4.83693026056489  1.67535882598582  2.64226215044620
H  3.72883707707897  3.52182659847028  2.05984583257006
H  5.81956600238277  -0.13284613109312  2.71155713191174
Cl  -2.18010452972578  5.80488095008561  0.12322137894388
Cl  5.54223222550663  2.39289028339428  4.05747638954940
N  1.00111520331785  1.26160341050517  0.03118740051774
C  1.42758612453262  0.52220383712722  -0.97326597378876
O  0.89643894422896  -0.33858488947690  -1.69181426973998
N  2.87033448988724  0.38954477057122  -0.97235112831292
H  4.69444110918332  -0.98755357916509  0.71270585619162
H  -0.69140884063795  1.83158075986601  -1.68166715335223
Cl  -2.63904268048090  4.02742214461237  -2.06809203941757

