%nproc=8
%mem=4000MB
#opt=(noeigen,calcfc,ts,recalc=5,maxcyc=200) freq B3LYP/SVP em=GD3BJ

ts-1849.gjf

0 1
O  1.09075926811474  -3.31275944781019  8.83477391343343
Cl  3.63523702576167  -5.92153658803679  1.22887326138329
H  0.89261071598998  -3.20105404991298  9.77840335160382

