%nproc=8
%mem=4000MB
#opt=(noeigen,calcfc,ts,recalc=5,maxcyc=200) freq B3LYP/SVP em=GD3BJ

ts-4568.gjf

0 1
Cl  3.19743300963530  1.17650906108783  -5.23226659562400
O  4.02509679866831  3.98495389419793  -4.21115035902956
C  -1.28068841854941  2.10549360846269  -2.80939699705855
C  -0.04964894767320  2.61385595226448  -2.76562208288928
C  0.65082970685156  2.33144587050326  -4.06525109584722
C  1.99584686989939  2.80206017953523  -4.31127881280620
C  -0.32156480548651  1.75579248118677  -4.91979975093922
C  -1.40385850070593  1.47832148612404  -4.13538609657754
H  0.51500792775251  3.16017774975574  -2.04292839554827
Cl  -2.50961070308880  2.14189594192475  -1.67001778044236
N  2.89714954721110  3.59965608602945  -4.12258846585633
H  -0.09428116043768  1.33523295050097  -5.87595752005548
Cl  -2.58979167781822  0.31787916052177  -4.40100021303016

