%nproc=8
%mem=4000MB
#opt=(noeigen,calcfc,ts,recalc=5,maxcyc=200) freq B3LYP/SVP em=GD3BJ

ts-1287.gjf

0 1
O  2.56378603637027  -4.42812543542811  3.11033008223372
Cl  3.93239300957043  -3.38289793804572  2.85312020083681
H  2.73537898000768  -5.21821984144497  2.56809582678117

