%nproc=8
%mem=4000MB
#opt=(noeigen,calcfc,ts,recalc=5,maxcyc=200) freq B3LYP/SVP em=GD3BJ

ts-397.gjf

0 1
O  2.35922510277142  3.51557437573164  -0.01063196711907
Cl  2.34675871251151  4.02263280884504  -1.73086233480169
H  1.77983866269904  2.77878079120853  -0.17104715506938

