%nproc=8
%mem=4000MB
#opt=(noeigen,calcfc,ts,recalc=5,maxcyc=200) freq B3LYP/SVP em=GD3BJ

ts-1277.gjf

0 1
O  2.53529692945268  -4.56029208455872  3.23040261164282
Cl  3.96610954325742  -3.51228789862236  3.31032092421772
H  2.45318212165101  -4.53108695543055  2.27142276205274

