%nproc=8
%mem=4000MB
#opt=(noeigen,calcfc,ts,recalc=5,maxcyc=200) freq B3LYP/SVP em=GD3BJ

ts-1307.gjf

0 1
O  4.80726965249508  -4.65410671066454  2.31820397182363
Cl  4.74113961921815  -2.49248850296505  1.88911141335969
H  3.90300227895072  -4.76110888663211  2.62922165390010

