%nproc=8
%mem=4000MB
#opt=(noeigen,calcfc,ts,recalc=5,maxcyc=200) freq B3LYP/SVP em=GD3BJ

ts-4416.gjf

0 1
Cl  1.42824671102779  3.18283417282329  3.27216133104952
Cl  1.82800669273336  4.07445287474126  1.21259774161122

