%nproc=8
%mem=4000MB
#opt=(noeigen,calcfc,ts,recalc=5,maxcyc=200) freq B3LYP/SVP em=GD3BJ

ts-2253.gjf

0 2
Cl  2.02087833128050  -3.78551096037757  -0.42130684068911
C  -2.00269501435997  -2.63576391508817  -0.58253741302039
C  -2.01080182750155  -3.63456058527168  0.34989504251757
C  -1.66609425703997  -3.44108578388197  1.64220428428873
C  -0.92421025671977  -2.22049204960074  1.91632769612324
C  -0.37672317342704  -1.53360646082737  0.81073429427171
C  -1.16510374667244  -1.56753782185071  -0.40144499085869
H  -2.47975403373918  -4.55338743839667  0.17122192938411
H  -1.76845309702097  -4.33244884409950  2.24876768172327
C  -1.92843868374582  1.16809842019432  2.22101290499560
C  -2.31711877179064  0.72086477818921  0.88410473375423
C  -1.93422138414332  2.53856729230363  2.44319375635431
C  -3.16501330040051  1.53471331646612  0.20814256924675
H  -2.63979228796187  -0.24976726634123  0.61010137029268
C  -2.89688303942408  3.40615564591779  1.90094060562546
C  -3.52321265258521  2.75677819274781  0.71357371826601
H  -3.60511394358123  1.06557608750815  -0.67661330400488
H  -3.42321154471886  4.10797785400103  2.54552107468620
Cl  -2.80865440524992  -3.04553537544857  -2.08525394282734
Cl  -5.22680953517525  2.90790946702830  0.54380023659721
N  -0.65123436221201  -1.72126666031848  3.09588136183462
C  -1.17969656458374  -0.67104878959605  3.71848951827960
O  -1.33579985256416  -0.40237214768449  4.89230431633502
N  -1.07348415113515  0.44339059125674  2.96671913632625
H  -1.52214253432675  2.68744374830086  3.51916189822787
H  0.39990263168327  -0.81290196742688  1.12767093701386
Cl  -0.89462041722829  -0.70016309485031  -2.00713520343304

