%nproc=8
%mem=4000MB
#opt=(noeigen,calcfc,ts,recalc=5,maxcyc=200) freq B3LYP/SVP em=GD3BJ

ts-5882.gjf

0 1
O  1.01599274957539  -2.71506212419814  0.90562988397025
Cl  -2.34443559808989  -1.13683537536445  -1.50058291401970
O  -4.45247763009449  -2.58155573871764  -0.03563795743434
H  -5.06688044510673  -2.02713241138220  0.53239502673474
C  -2.25516093539885  -3.79192675940054  0.39502196625510
C  -3.23536090476555  -2.54261727519489  0.70945023731217
C  -2.37850243189206  -1.37032706895787  0.27566995834148
C  -0.91511562578801  -1.48557455992188  0.46585034250133
C  -0.31751757161423  -2.58822588996775  1.22556528175134
C  -0.99354181398777  -3.86599527287456  0.88535173141639
H  -3.29402819449605  -2.66233315306601  1.72514305620957
H  -2.77508621642153  -0.43338184183700  0.70483545542446
Cl  -3.28730034664339  -5.10818337967354  0.11129498140363
N  0.06261800688567  -0.77205963498735  -0.01151088239956
C  1.21505535244858  -1.49386682935878  0.35906727046243
O  2.32602286436017  -0.98590829793669  0.46068745057615
H  -0.45142442453700  -2.36857684619410  2.32268603006862
Cl  -0.01371177392183  -5.27671735458735  0.98390165544382

