%nproc=8
%mem=4000MB
#opt=(noeigen,calcfc,ts,recalc=5,maxcyc=200) freq B3LYP/SVP em=GD3BJ

ts-4723.gjf

0 1
O  -0.17174886139503  -0.35508179238814  -7.09632489241417
H  -0.47465626886721  0.03428290397313  -7.90702088849083
Cl  -0.65128201552025  -1.73027808601495  -7.53029941967278

