%nproc=8
%mem=4000MB
#opt=(noeigen,calcfc,ts,recalc=5,maxcyc=200) freq B3LYP/SVP em=GD3BJ

ts-5970.gjf

0 1
Cl  -0.16405393217925  6.82906075362464  2.79473901797541
Cl  -2.39564608209877  7.76628318495798  3.21454781552066

