%nproc=8
%mem=4000MB
#opt=(noeigen,calcfc,ts,recalc=5,maxcyc=200) freq B3LYP/SVP em=GD3BJ

ts-1839.gjf

0 1
O  1.83291094106544  -3.58248019255320  7.26306351082355
Cl  3.53457348614938  -5.83524413650335  1.38837069785886
H  2.47492472520800  -3.21538107953542  6.66287229464782

