%nproc=8
%mem=4000MB
#opt=(noeigen,calcfc,ts,recalc=5,maxcyc=200) freq B3LYP/SVP em=GD3BJ

ts-5711.gjf

0 1
O  -7.49538951015533  -3.36409326717415  0.43712876789454
H  -0.53915896384178  -1.60267005377592  6.61059132367130
C  -4.75917016804016  -2.42629619946122  1.89502099224942
C  -4.34316140268654  -1.70646070397456  3.07239770702521
C  -3.99126417014278  -3.46269292576832  1.41595111861479
C  -3.38949248997546  -2.29568556108963  3.99610240936740
H  -5.12561169942977  -1.07063313424880  3.52226322650941
C  -3.26902640972706  -4.13995500209580  2.39475736768178
C  -3.00856389852180  -3.52028493462073  3.58753873128095
H  -3.00552550091761  -1.73415371466768  4.81929237955589
H  -2.86606992763077  -5.14083304924245  2.30053016559895
Cl  -2.05452260129777  -4.55928813578248  4.60431960925932
H  -8.09292611138305  -3.94978890137772  0.87805470206346
C  -7.10095098251553  -2.30549286038205  1.25266130093153
O  -8.03619158863894  -1.83106680553358  1.78392954428591
N  -5.78778875904234  -2.15875455798837  1.11260241647838
H  -4.22239737323192  -3.87873804271557  0.42473687117698

