%nproc=8
%mem=4000MB
#opt=(noeigen,calcfc,ts,recalc=5,maxcyc=200) freq B3LYP/SVP em=GD3BJ

ts-4746.gjf

0 1
O  1.41268713822022  -1.40462753796506  -6.77674281729106
Cl  0.53518864670407  0.16011705109571  -5.58706835902619
H  1.12902611800976  -2.34100931172303  -6.78272744675567

