%nproc=8
%mem=4000MB
#opt=(noeigen,calcfc,ts,recalc=5,maxcyc=200) freq B3LYP/SVP em=GD3BJ

ts-4756.gjf

0 1
O  1.58344424969630  -1.74721700504615  -8.06580029946980
Cl  0.93929325502875  -0.01667134658016  -5.70169429704332
H  1.22696439329203  -1.02066050261417  -8.53799758264679

