%nproc=8
%mem=4000MB
#opt=(noeigen,calcfc,ts,recalc=5,maxcyc=200) freq B3LYP/SVP em=GD3BJ

ts-244.gjf

0 1
O  -1.14564314174498  1.79429981956589  0.47836879162412
Cl  -2.49806480382775  2.71255493061163  0.33879464282750
H  -0.87077438555762  1.44244327363396  1.33298555959627

