%nproc=8
%mem=4000MB
#opt=(noeigen,calcfc,ts,recalc=5,maxcyc=200) freq B3LYP/SVP em=GD3BJ

ts-4703.gjf

0 1
O  1.03944784468781  -0.61959945188495  -7.40488082999478
H  0.24512706481979  -0.04401355490233  -7.36240911669049
Cl  -0.10047436701899  -2.32366012495427  -7.44656752575932

