%nproc=8
%mem=4000MB
#opt=(noeigen,calcfc,ts,recalc=5,maxcyc=200) freq B3LYP/SVP em=GD3BJ

ts-3667.gjf

0 1
O  -0.61195386139820  3.70728440801565  0.01139515683094
H  -1.58976482612078  3.81912276874825  0.01094048612550
Cl  1.37564813640596  4.01544573319813  1.81093857250145
Cl  2.21185428997853  3.35842193328370  -1.48536623476611
C  0.53544038550653  2.39123858040377  1.69494703776382
C  -0.05150245375084  2.51780991586388  0.23158719667850
C  1.00152132450214  2.13123378925438  -0.78749800977026
C  1.40777673643306  0.77333427464602  -0.48051804181554
C  1.45800759058249  0.28091603239576  0.87519768276229
C  1.37779948155371  1.26777425968706  1.87931920701496
H  -0.84143456423417  1.70016585437425  0.11124679988786
H  0.44143750017375  2.00631585377180  -1.71793682171973
C  2.20482359444571  -0.74398125348258  -4.28682826666123
C  3.29235184025183  0.21679611035013  -4.07017465274317
C  1.84914010045695  -0.81316571159362  -5.69649371758134
C  3.26147313356619  1.33337864051587  -4.93314736598949
H  3.86022229642316  0.22029795689756  -3.13868430831702
C  1.94500614803501  0.33912771277280  -6.43467527369311
C  2.57763800052109  1.47725423309369  -6.16466400626887
H  3.69785909556142  2.23467736256275  -4.56419215088790
Cl  -0.73825620782449  2.27972057628910  3.01732425895963
Cl  2.38140669096186  3.00968700053624  -7.04151496422849
N  1.70109478076721  0.06729417981359  -1.61622158969268
C  1.48442640803078  -1.18001987479261  -2.05108296424033
O  0.95008084478221  -1.90301705196039  -1.19302604160259
N  1.73851002103012  -1.47165193765966  -3.29060908154875
H  1.27999039035718  -1.70418615897845  -5.90952080801629
H  1.68839524059607  -0.75679729514477  0.93244215498177
Cl  2.22964441459262  1.06604602821012  3.47824060546943

