%nproc=8
%mem=4000MB
#opt=(noeigen,calcfc,ts,recalc=5,maxcyc=200) freq B3LYP/SVP em=GD3BJ

ts-530.gjf

0 1
O  -0.22441729550980  3.55573407790887  0.40561299182695
Cl  -0.62038348200081  -0.90051498608553  -0.31816433492191
H  -0.43323591486850  4.48619394874313  0.43062440247869

