%nproc=8
%mem=4000MB
#opt=(noeigen,calcfc,ts,recalc=5,maxcyc=200) freq B3LYP/SVP em=GD3BJ

ts-1446.gjf

0 1
O  -0.41819002097646  -5.05817847503631  -3.70877633466271
Cl  -0.42237706056250  -4.17895076398583  -5.70505285772765
H  0.56314331972898  -5.11077727897063  -3.69577392641321

