%nproc=8
%mem=4000MB
#opt=(noeigen,calcfc,ts,recalc=5,maxcyc=200) freq B3LYP/SVP em=GD3BJ

ts-612.gjf

0 1
O  3.57089627696559  1.91719058498810  1.96617151644049
Cl  2.74920092938818  2.00626229705772  3.60373575320989
H  3.05617323971062  1.11928584759797  1.65003787482569

