%nproc=8
%mem=4000MB
#opt=(noeigen,calcfc,ts,recalc=5,maxcyc=200) freq B3LYP/SVP em=GD3BJ

ts-1436.gjf

0 1
O  -1.63086621161091  -5.04285193136340  -5.17757764319752
Cl  -0.12054609752077  -3.82323418843402  -5.67490701097265
H  -2.17412571555334  -4.87346689159542  -5.96141508199741

