%nproc=8
%mem=4000MB
#opt=(noeigen,calcfc,ts,recalc=5,maxcyc=200) freq B3LYP/SVP em=GD3BJ

ts-304.gjf

0 1
O  -2.65567540615945  -1.31322150667101  -0.67307550113406
Cl  -1.96620184666341  0.65143081576272  -2.05197297514602
H  -3.47978518356084  -1.25825137935863  -1.16090923551571

