%nproc=8
%mem=4000MB
#opt=(noeigen,calcfc,ts,recalc=5,maxcyc=200) freq B3LYP/SVP em=GD3BJ

ts-3285.gjf

0 2
Cl  -1.85659921525343  1.73025698967172  -2.66767634128896
O  2.15751980005998  4.11239391926690  -3.05272296688652
H  2.07880832300257  4.74252216161316  -2.28927980043424
H  -0.98737817194603  1.80181365277036  -1.70628114225179
C  2.86328803515858  0.64590956475283  -2.89754899135587
C  1.92189909471201  -0.33917219564657  -2.58291837098121
C  4.18396412760345  0.78511684500365  -2.42161577985754
C  2.43109736442031  -1.37280716530817  -1.78007603459147
H  0.97477158783643  -0.47600267368063  -3.15462370397085
C  4.52378009007150  -0.09359938756182  -1.36620747027049
C  3.62675462905288  -1.14501656793783  -1.08461948040960
H  1.80320875634887  -2.23059814776934  -1.62285208669048
H  5.46039821249783  -0.21270799150131  -0.83582071581583
Cl  3.77948749426067  -1.88536520189687  0.56554643095899
C  2.01807667471635  2.82443168094804  -2.60603681401667
O  1.82158524526617  2.49913914707925  -1.45620784019487
N  2.41364148651020  1.75868042480438  -3.58408108871978
H  4.72692587682761  1.63413461935830  -2.85267268285394

