%nproc=8
%mem=4000MB
#opt=(noeigen,calcfc,ts,recalc=5,maxcyc=200) freq B3LYP/SVP em=GD3BJ

ts-4608.gjf

0 1
O  -2.74676041946722  -1.02088626503732  4.61420402194040
H  -3.54636494437109  -0.91999158038832  5.11613048767661
H  -2.25553781971883  -0.20398074687554  4.80660985867076
O  1.28710041801613  -0.04968756802122  2.93932125028564
Cl  1.69838860362389  1.45800840377889  2.57748069478957
H  0.61857402578477  -0.61829096112143  2.60922932647469

