%nproc=8
%mem=4000MB
#opt=(noeigen,calcfc,ts,recalc=5,maxcyc=200) freq B3LYP/SVP em=GD3BJ

ts-1531.gjf

0 1
O  0.70740709775573  1.41967637770990  6.13026008428582
Cl  -0.17008503063731  2.61707170554755  4.65454555699021
H  0.37186532515126  0.62671818359826  5.78677404271012

