%nproc=8
%mem=4000MB
#opt=(noeigen,calcfc,ts,recalc=5,maxcyc=200) freq B3LYP/SVP em=GD3BJ

ts-13.gjf

0 1
O  0.22326739564058  1.09181600239851  2.93371745601575
Cl  -0.78352397469676  0.79444369494118  4.58719158481589
H  0.25536144016315  2.03329754300356  2.64687942267835
C  -5.24754147856168  -0.90236805472941  1.10764719283210
C  -4.55461729937588  0.24529738074680  1.47131576692782
C  -3.21965865906623  0.23423682188386  1.85731821718168
C  -2.50989963496359  -0.96018733769680  1.72345029251899
C  -3.22892808773508  -2.16075231160138  1.46070726441349
C  -4.57856642189435  -2.14364176545831  1.12898629871010
H  -5.04729347978570  1.19010311086326  1.42991800208250
H  -2.90747036801514  1.12809685656222  2.36707915455284
C  2.03601766306526  -2.36015890540378  1.58557918991567
C  2.13209086492455  -3.71464417166977  1.14156637724426
C  3.17066221350475  -1.54669324825385  1.53881475541481
C  3.36636978237037  -4.22850777218702  0.64071309151618
H  1.20238206572257  -4.21507852239689  1.07990802600215
C  4.38968843483872  -2.09586700543397  1.16494667285368
C  4.46573246078206  -3.39550672111935  0.73418356016141
H  3.50508523474979  -5.22505591415828  0.32107552425803
H  5.24952904071940  -1.45680362277725  1.09769181898565
Cl  -6.84656152473079  -0.78813457003244  0.58347229287373
Cl  5.96470139517721  -3.94287165921594  0.01876890497966
N  -1.17581946503922  -1.06034045828090  2.04493776759249
H  -0.87630874914180  -0.40052995148202  2.81187192338500
C  -0.38123401459483  -2.15031548556260  1.67103854521392
O  -0.69474011034297  -3.08651551179182  0.92197247300195
N  0.86834865018666  -2.00743709261920  2.26283935706474
H  0.93313972234420  -1.07782664562193  2.76025179666357
H  2.97401403679060  -0.53586066118925  1.85405572182662
H  -2.77195709703506  -3.09126551041361  1.35038009540966
Cl  -5.20390261852523  -3.61026168200154  0.65438535238992

