%nproc=8
%mem=4000MB
#opt=(noeigen,calcfc,ts,recalc=5,maxcyc=200) freq B3LYP/SVP em=GD3BJ

ts-520.gjf

0 1
O  -1.30549034121312  2.70996107030299  -0.02925790599372
Cl  -0.77003060015210  -0.45716501532926  0.19895822527830
H  -1.37013269116923  3.61424508670796  0.31845018148874

