%nproc=8
%mem=4000MB
#opt=(noeigen,calcfc,ts,recalc=5,maxcyc=200) freq B3LYP/SVP em=GD3BJ

ts-4648.gjf

0 1
O  -6.96132507226323  3.06587965079854  9.87316360604372
H  -1.22270881645448  0.58696110931444  5.99096346899258
H  -7.82211522086122  3.30980520197874  9.95186676007110
O  -1.00163435016143  0.09766759307601  6.79897248470781
Cl  3.20066475698129  1.42469799832048  1.98994413507813
H  -0.07352767688889  -0.16864891662262  6.44580035228828

