%nproc=8
%mem=4000MB
#opt=(noeigen,calcfc,ts,recalc=5,maxcyc=200) freq B3LYP/SVP em=GD3BJ

ts-1819.gjf

0 1
O  3.27791818137106  -3.65484745280105  2.79000838865210
Cl  3.20855412983851  -5.50653473099600  1.72301070775636
H  3.45118195922507  -3.39949138253466  1.86288397307780

