%nproc=8
%mem=4000MB
#opt=(noeigen,calcfc,ts,recalc=5,maxcyc=200) freq B3LYP/SVP em=GD3BJ

ts-2491.gjf

0 1
Cl  -2.72759012441214  6.53138935946151  0.38148051264049
Cl  -3.03987294501313  5.34996835341748  -1.20229864764165

