%nproc=8
%mem=4000MB
#opt=(noeigen,calcfc,ts,recalc=5,maxcyc=200) freq B3LYP/SVP em=GD3BJ

ts-3411.gjf

0 2
O  1.15992482571898  -1.02324769956045  -3.11581422696125
Cl  2.66587447844237  -0.89455034938477  -2.32187999804898
H  1.09574761345942  -1.98383532563730  -3.36749911206003
C  2.53777885878709  -5.23755188772507  -0.40223958235214
C  1.20322249900730  -5.58604608844847  -0.08748037932521
C  0.35993372428357  -5.45476794629192  -1.11652741316275
C  0.77490041372886  -5.20085392971063  -2.47773356313730
C  2.15226822375127  -5.26650811623785  -2.91006351000124
C  2.86874049768385  -4.84670383788218  -1.74884275129556
H  0.80696989593055  -5.89076579518074  0.90690780322771
H  -0.68645658378120  -5.65940023221581  -1.01680698024754
Cl  3.71358483297377  -5.73640046260197  0.73784204159518
N  -0.32123481465758  -4.65730255239384  -3.03010329549154
H  -0.11041396596489  -4.21228658360566  -3.95150553299102
H  2.63336789571176  -5.58922882488938  -3.84296602481663
Cl  4.24151953395563  -4.02491517047151  -1.46170296909076

