%nproc=8
%mem=4000MB
#opt=(noeigen,calcfc,ts,recalc=5,maxcyc=200) freq B3LYP/SVP em=GD3BJ

ts-490.gjf

0 1
O  -1.65531399869442  0.65390529026576  -1.78568214286744
Cl  -2.37685289429439  1.42437859586308  -0.02089524644250
H  -2.43090101370080  0.53376741981452  -2.38594215481619

