%nproc=8
%mem=4000MB
#opt=(noeigen,calcfc,ts,recalc=5,maxcyc=200) freq B3LYP/SVP em=GD3BJ

ts-247.gjf

0 1
O  -1.21221394929521  -3.55246718443924  -4.77128606758592
Cl  -0.74196248161720  -4.02700487208058  -3.03065618765368
H  -0.68697983228598  -2.80788397891534  -5.12231633473764

