%nproc=8
%mem=4000MB
#opt=(noeigen,calcfc,ts,recalc=5,maxcyc=200) freq B3LYP/SVP em=GD3BJ

ts-287.gjf

0 1
O  1.15426128178282  -3.38668520138905  -2.76116106859136
Cl  -3.54365733156267  -5.85519906557387  -2.84670709156642
H  1.34805851463045  -4.16107184648449  -3.30303047552121

