%nproc=8
%mem=4000MB
#opt=(noeigen,calcfc,ts,recalc=5,maxcyc=200) freq UB3LYP/SVP em=GD3BJ

ts-189.gjf

0 1
O  2.43100405133571  -0.34376251070915  5.81552461889140
Cl  3.05945562838918  -0.65454462267693  4.03064590568515
H  1.43481562189790  -0.55414441039295  5.79963480258927

