%nproc=8
%mem=4000MB
#opt=(noeigen,calcfc,ts,recalc=5,maxcyc=200) freq UB3LYP/SVP em=GD3BJ

ts-209.gjf

0 1
O  1.95531171708542  -0.81211841888264  4.37800919675874
Cl  3.56919184031681  -1.02837547959689  3.51839872382814
H  1.79483964109863  -1.72314348703081  4.12819676054580

