%nproc=8
%mem=4000MB
#opt=(noeigen,calcfc,ts,recalc=5,maxcyc=200) freq UB3LYP/SVP em=GD3BJ

ts-219.gjf

0 1
O  1.89439511314530  -1.75922346053597  3.44071334479256
Cl  3.93181817414773  -1.03333314916955  3.61639503599858
H  1.65107818387728  -2.06098195151768  4.33677270619668

