%nproc=8
%mem=4000MB
#opt=(noeigen,calcfc,ts,recalc=5,maxcyc=200) freq UB3LYP/SVP em=GD3BJ

ts-249.gjf

0 1
O  3.70528614444850  -3.22759246093979  0.76469510289849
Cl  4.04218829929506  -0.48495358411620  5.95530028878976
H  3.85462487356197  -3.64759605071210  1.68994177582729

