%nproc=8
%mem=4000MB
#opt=(noeigen,calcfc,ts,recalc=5,maxcyc=200) freq B3LYP/SVP em=GD3BJ

ts-1317.gjf

0 1
O  5.07480799333219  -4.72889415651967  3.37575881941855
Cl  4.90990609505113  -1.64928559716112  1.90247682843104
H  5.71654926780368  -4.37614091855618  2.74380855342582

