%nproc=8
%mem=4000MB
#opt=(noeigen,calcfc,ts,recalc=5,maxcyc=200) freq B3LYP/SVP em=GD3BJ

ts-1614.gjf

0 1
Cl  -2.49712946175380  4.05653159183182  -1.96461206796191
O  -2.40742494401759  3.78512765395871  -0.23735663840303
H  -3.33774241008251  4.03524952989062  -0.05670578188152

