%nproc=8
%mem=4000MB
#opt=(noeigen,calcfc,ts,recalc=5,maxcyc=200) freq B3LYP/SVP em=GD3BJ

ts-457.gjf

0 2
C  -4.75546472649360  0.36062256617870  -0.09543948874326
C  -3.43461526119978  -0.00547180645570  0.39340212009963
C  -2.78769436312778  -1.12624118854570  -0.13905790876888
C  -3.20708376631370  -1.61433777577699  -1.37687689325451
C  -4.50015091669790  -1.32247552474413  -1.77723374483474
C  -5.36620053568976  -0.45986805930831  -1.13210326187244
H  -3.01903310166323  0.39101964740996  1.31570369004989
H  -1.86378212721097  -1.48316419146096  0.34535529805075
C  -0.38807268103344  -4.65640739176658  -3.18179755527183
C  0.13396357476059  -4.87990273277952  -4.43729680707162
C  -0.11777009293955  -5.46508372638235  -2.04881258017119
C  0.88002897526396  -6.06064136007782  -4.57481119688712
H  -0.15528547629142  -4.16951011492544  -5.21047056696673
C  0.77996082835209  -6.56563308557777  -2.05798194655169
C  0.93376396809103  -6.80182862920862  -3.42340830320340
H  1.04473411774284  -6.65247479762371  -5.43689473494708
H  1.16734797726083  -7.04896704713797  -1.16762114772927
Cl  -5.56790991983689  1.46747145823854  1.09197888698217
Cl  4.35550259773000  -5.66644136788164  -2.22615459762172
N  -2.53255831990356  -2.33917445198422  -2.25373377573009
H  -2.97854033784931  -2.69874255402321  -3.10194392470504
C  -1.08429920147203  -2.51643779128888  -2.14864321794800
O  -0.46279779588104  -1.66199939309081  -1.54040347170035
N  -0.99427708051636  -3.55192635304629  -2.94786967864519
H  -0.39935359259137  -5.04805168223736  -1.06945019927208
H  -4.86183021066842  -1.94512542206253  -2.60241063753131
Cl  -7.05667603610706  -0.55927445699695  -0.99722978415873

