%nproc=8
%mem=4000MB
#opt=(noeigen,calcfc,ts,recalc=5,maxcyc=200) freq B3LYP/SVP em=GD3BJ

ts-5185.gjf

0 1
O  1.11721714560193  3.38235898798695  -1.15502829181040
Cl  0.98245426365581  3.10446581753369  0.49959586122593
H  1.94848051365316  3.89631276173515  -1.20755421676879

