%nproc=8
%mem=4000MB
#opt=(noeigen,calcfc,ts,recalc=5,maxcyc=200) freq B3LYP/SVP em=GD3BJ

ts-427.gjf

0 1
O  0.27237767573201  3.69831337082598  -1.59560353223199
Cl  2.14464198357806  3.70012050059719  -3.62703742914204
H  0.06760515466958  4.64557388451127  -1.74523800292464

