%nproc=8
%mem=4000MB
#opt=(noeigen,calcfc,ts,recalc=5,maxcyc=200) freq B3LYP/SVP em=GD3BJ

ts-437.gjf

0 1
O  0.86469881057635  3.95039192005291  -1.58334518751561
Cl  2.24192871053450  3.51282945732593  -4.47153202694169
H  1.54929596541310  3.37822959189945  -1.95687834246164

