%nproc=8
%mem=4000MB
#opt=(noeigen,calcfc,ts,recalc=5,maxcyc=200) freq B3LYP/SVP em=GD3BJ

ts-2429.gjf

0 2
O  1.36490427362131  -0.14133565616502  3.57409882401890
C  -2.13306044866234  -3.75509962684939  1.37605539523834
C  -0.73772101201129  -3.85943648252826  1.45134285531404
C  0.13889984587860  -2.79945279143828  1.41889022139037
C  -0.40686380302728  -1.51360215412478  1.37640135107476
C  -1.75184859149862  -1.38149771433791  0.98916026971581
C  -2.61972362356388  -2.47958467609101  1.08520152559263
H  -0.37381118045960  -4.89607315231397  1.43551583203939
H  1.22973567419869  -3.00662827435419  1.38479380576743
C  1.91191639400221  0.28343353800107  5.92028422783868
C  1.57916006584764  1.14573152909462  7.17475161535173
C  1.38757328174676  0.69530172290015  4.62404039833723
C  0.79288086639640  2.22956679253340  7.03036111643126
H  2.04655480127328  0.78302339470660  8.03596277426526
C  1.02213878620850  2.15167851636799  4.64707663662529
C  0.54118250610544  2.73004297405614  5.76455326824773
H  0.20846902905765  2.52737248653846  7.88126943099487
H  0.70139304252716  2.77294034335447  3.79130092563666
Cl  -3.06238033965133  -4.89843528660428  2.22716169424321
Cl  -0.96958046803116  3.82815326550540  5.47035715132915
N  0.28852771324720  -0.41369556373483  1.63940206335219
C  1.42037870828683  -0.24353777817602  2.28190648820363
O  2.61529128590474  -0.12665106881704  1.86167146536465
N  2.32329176219083  -0.95091180565717  6.09974654761407
H  2.31888264897554  -1.35219889119712  7.00913423729742
H  0.29666621899656  0.45724393195091  4.79083549443305
H  -1.97604013541050  -0.37388131021460  0.71770343674817
Cl  -4.32089271794412  -2.12616758678871  1.04377961427474

