%nproc=8
%mem=4000MB
#opt=(noeigen,calcfc,ts,recalc=5,maxcyc=200) freq B3LYP/SVP em=GD3BJ

ts-3776.gjf

0 1
Cl  -1.64077961776666  -1.67523272479683  -6.40758774020192
Cl  -1.59161545463136  -2.72733873818969  -4.39196700645088

