%nproc=8
%mem=4000MB
#opt=(noeigen,calcfc,ts,recalc=5,maxcyc=200) freq B3LYP/SVP em=GD3BJ

ts-1551.gjf

0 1
O  0.53059158743568  3.39321830732311  6.06881223363789
Cl  -0.04430540821488  1.52988797969124  5.07755270667223
H  1.44243878740306  3.59299269486545  5.83370504744215

