%nproc=8
%mem=4000MB
#opt=(noeigen,calcfc,ts,recalc=5,maxcyc=200) freq B3LYP/SVP em=GD3BJ

ts-2461.gjf

0 1
Cl  -3.19452516948533  8.12624520602996  -0.69184177154354
Cl  -3.24550058236515  4.16901379480485  -1.05637934189066

