%nproc=8
%mem=4000MB
#opt=(noeigen,calcfc,ts,recalc=5,maxcyc=200) freq B3LYP/SVP em=GD3BJ

ts-622.gjf

0 1
O  2.02918672795250  2.80530819952857  1.41682189347111
Cl  2.72444115385999  2.36171431722521  3.01615443459662
H  2.61899277033059  3.29310821001072  0.88254918286352

