%nproc=8
%mem=4000MB
#opt=(noeigen,calcfc,ts,recalc=5,maxcyc=200) freq B3LYP/SVP em=GD3BJ

ts-1829.gjf

0 1
O  2.62453595716718  -3.64193334530521  5.03563064342610
Cl  3.38320542859081  -5.69319134789180  1.55451843990808
H  2.37261773661055  -3.98274002698132  5.91051158880171

