%nproc=8
%mem=4000MB
#opt=(noeigen,calcfc,ts,recalc=5,maxcyc=200) freq B3LYP/SVP em=GD3BJ

ts-274.gjf

0 1
O  -2.36016594753338  0.05208922286669  -0.48129082855648
Cl  -3.72604462225273  1.73786047539017  -0.54072759298726
H  -1.81570475284651  -0.07570653325032  -1.25586652027488

