%nproc=8
%mem=4000MB
#opt=(noeigen,calcfc,ts,recalc=5,maxcyc=200) freq B3LYP/SVP em=GD3BJ

ts-3651.gjf

0 2
O  -0.43585757962288  -1.77323966396601  -1.50173257458194
Cl  -1.69464726611744  -3.99110324857080  -5.21343973114003
H  0.09828320242784  -1.04905610866042  -1.18229220413755
C  1.09403553141124  -4.72138606274924  -3.45468957876873
C  0.17597323857531  -3.89325545816020  -2.92420157440203
C  0.29933764739862  -2.41383394912831  -2.59980373212401
C  1.70363428909269  -2.07851177268554  -2.62787753238565
C  2.64732918309773  -2.87463606727998  -3.26670871225403
C  2.49362939895202  -4.14137648990074  -3.54792535874037
H  -0.80469232704083  -4.11412602887092  -2.63903048071413
H  -0.11839930550328  -1.87135514327243  -3.49352658298704
Cl  0.58670298135229  -6.22014535297338  -3.96075846625583
N  2.18392788946460  -0.91449450008989  -2.25572745559718
H  3.15234572826361  -0.63700201876621  -2.33909574915231
H  3.61874823768649  -2.72551779201591  -2.73425873434041
Cl  3.42240317161982  -5.57547610188380  -2.93414369724791

