%nproc=8
%mem=4000MB
#opt=(noeigen,calcfc,ts,recalc=5,maxcyc=200) freq B3LYP/SVP em=GD3BJ

ts-205.gjf

0 1
O  -5.13248371180377  2.27110930603084  2.18841718980919
Cl  -5.10283117831913  3.69275714070458  3.17443783079159
H  -4.24332207879767  1.77349702151740  2.02144833738114
O  -1.83425124042849  1.98095092531684  2.39927337448030
Cl  -2.65121505828381  0.72459422775213  1.50458303964132
H  -2.37255231255601  2.21087296928239  3.19467283585144

