%nproc=8
%mem=4000MB
#opt=(noeigen,calcfc,ts,recalc=5,maxcyc=200) freq B3LYP/SVP em=GD3BJ

ts-3654.gjf

0 1
Cl  0.68319039040110  1.20241981168729  -2.74266140835661
Cl  -1.02868755003122  0.87405780523905  -0.98854809722803

