%nproc=8
%mem=4000MB
#opt=(noeigen,calcfc,ts,recalc=5,maxcyc=200) freq B3LYP/SVP em=GD3BJ

ts-1594.gjf

0 1
Cl  -3.45806581416721  3.67106019414259  -1.24830407518480
O  -1.90052508330761  4.22362597435371  -1.72469510689959
H  -1.53963102268505  5.00841336594115  -1.21236655076533

