%nproc=8
%mem=4000MB
#opt=(noeigen,calcfc,ts,recalc=5,maxcyc=200) freq B3LYP/SVP em=GD3BJ

ts-4403.gjf

1 1
O  -4.60362834134281  0.85364082544906  3.93671949897236
H  -5.49084202880850  0.52936750921928  3.79851101575969
C  1.11925040789207  -3.92938938791952  2.82386454198856
C  1.06619383985794  -3.03100902778937  3.88377262060060
C  0.26866938088275  -1.85917127545961  3.78934540480582
C  -0.31784403364672  -1.48622578765654  2.62257082388095
C  -0.23689920506176  -2.44401715053932  1.55698686273857
C  0.32325538849049  -3.68635121592804  1.66616393402813
H  1.61088243242109  -3.23050142323920  4.80862432660514
H  0.37201818982215  -1.13317933478581  4.58551591702009
C  -2.40459923858735  1.61992162218119  1.43377004757367
C  -3.55606205948991  1.61603609056802  0.63312556364442
C  -1.74211230068617  0.30628804402516  3.34407554437538
C  -4.67635046521075  1.36604871224214  1.42756471759389
H  -3.71831306023732  1.68774335316924  -0.45530615877498
C  -2.67090380282194  1.35182750209122  2.82170603452064
C  -4.15606211206414  0.97764182417999  2.69387524314344
H  -5.65925439742937  1.59183368365595  1.07218063183082
H  -2.45009202786403  2.12027327557804  3.55492749401910
Cl  2.19787834636687  -5.41161237779126  2.55548871374139
Cl  -3.58536085774598  -2.79994411363462  2.58114527057484
N  -1.05161658374596  -0.28889002646335  2.48527935960454
C  -0.19725799212808  2.69818718642067  1.60794448369907
O  0.75087797422640  3.22552108057071  1.95409867277811
N  -1.25826471149594  2.29982274543460  1.17051496341985
H  -1.89570669648018  0.10103078048723  4.41624119324075
H  -0.51330287760101  -2.06324777619161  0.59223961274126
Cl  0.58560948335752  -4.72399580080897  0.36871768532503

