%nproc=8
%mem=4000MB
#opt=(noeigen,calcfc,ts,recalc=5,maxcyc=200) freq B3LYP/SVP em=GD3BJ

ts-1571.gjf

0 1
O  0.13856035267285  4.42639684190861  5.06264900614798
Cl  0.59213256801665  0.46397799580745  5.74356027329457
H  0.27066812904115  4.23950297626975  4.12964526565874

