%nproc=8
%mem=4000MB
#opt=(noeigen,calcfc,ts,recalc=5,maxcyc=200) freq B3LYP/SVP em=GD3BJ

ts-3204.gjf

0 2
O  -2.94058330813598  4.47623104510399  -2.23837520814257
C  2.42272446890865  2.08608806039992  2.28333527043714
C  1.73027923483841  0.89284201337883  2.40388049170088
C  1.05473254451231  0.30032849937742  1.34824051733341
C  0.54845059501601  1.13657300971731  0.38031045670131
C  1.24761080744301  2.35011804307290  0.20855836675583
C  2.35404307673619  2.77046617867893  1.02205188448659
H  1.73244741774149  0.39009226947307  3.35890143136318
H  0.61850618840591  -0.66655222655915  1.30168480206850
C  -2.66639124528699  0.64050761344043  -1.36359648934539
C  -3.69166943833351  1.02471539428132  -2.29706805955900
C  -1.76244671623508  1.41757165308662  -0.52148784947515
C  -3.78254817682122  2.31311366422176  -2.78922391919195
H  -4.13813197416249  0.21904595124568  -2.83439616402464
C  -2.04139730388286  2.78605807500321  -0.99037612744713
C  -2.89327452285980  3.26916715512218  -2.02632450032534
H  -4.58976059273830  2.58823636471935  -3.40252204642189
H  -1.37308635255104  3.68644432875418  -0.82986685341547
Cl  3.82253560779749  2.18440820731371  3.51742866145109
N  -0.53261348432316  0.68699475983633  -0.42329476875429
C  -0.87837800390465  -0.56097711910448  -0.82080736793542
O  -0.02099842713849  -1.49509329512104  -0.87563991741082
N  -2.18745492041530  -0.59511987613944  -1.16780077543511
H  -2.33637655722549  1.51898596758004  0.41848716740112
H  1.10383293707151  3.03038883391450  -0.62310686155629
Cl  3.50102327222337  3.74522395165201  0.53412441240286

