%nproc=8
%mem=4000MB
#opt=(noeigen,calcfc,ts,recalc=5,maxcyc=200) freq B3LYP/SVP em=GD3BJ

ts-5414.gjf

0 2
H  -2.01163644804099  3.22749381827593  -1.11691811943415
O  -1.18686513598386  3.86730930108683  -6.08987765437642
H  -0.37990802749986  4.43656565034299  -6.22887682174371
O  -2.58864893671120  0.16815384349948  -3.01193544847829
Cl  -2.94246290720653  -1.06165703589144  -3.82131632683745
C  -2.36547322267112  2.67431922736870  -2.89235562717466
C  -3.84069259009260  2.94479057689631  -2.60221298253480
C  -1.82930932362922  2.19537751763211  -1.49004883073108
C  -4.58025008125704  1.88249280145738  -2.02332977467287
H  -4.41017792119821  3.60986093622658  -3.24923791728121
C  -2.66750999712379  1.19673445260167  -0.76074835790831
C  -3.97689602767913  1.06307992230210  -1.07412190327544
H  -5.55345106981064  1.62099523780658  -2.42138183676296
H  -2.32054535536889  0.49676922884799  -0.01971981698964
Cl  -5.33659696580750  0.34370947263444  -0.15004134967857
C  -1.76181903068025  2.84989327897535  -5.42633532826483
O  -2.24371958420397  1.88304595035667  -6.11194351565041
N  -1.80431480226343  3.12539732410488  -4.03291894730892
H  -0.78417380732389  1.84449407673223  -1.41893033623177

