%nproc=8
%mem=4000MB
#opt=(noeigen,calcfc,ts,recalc=5,maxcyc=200) freq B3LYP/SVP em=GD3BJ

ts-4673.gjf

0 1
O  2.27410045970863  0.02337435222832  -6.87106118604475
H  2.67131782553977  0.82926507359929  -7.17493980185143
Cl  0.25422099978875  -3.23899085508394  -7.29741098504448

