%nproc=8
%mem=4000MB
#opt=(noeigen,calcfc,ts,recalc=5,maxcyc=200) freq B3LYP/SVP em=GD3BJ

ts-1624.gjf

0 1
Cl  -1.98118733328486  4.41303309746141  -1.46320559822653
O  -3.45148858614619  3.46611297580614  -0.87568878584300
H  -3.51289967459959  2.64311566454357  -0.37568011857452

