%nproc=8
%mem=4000MB
#opt=(noeigen,calcfc,ts,recalc=5,maxcyc=200) freq B3LYP/SVP em=GD3BJ

ts-1634.gjf

0 1
Cl  -2.18868301664365  4.52257077485581  -1.32557221039894
O  -4.41100338434805  3.09589060086849  -1.71685146253852
H  -4.54159897810253  2.73827341539110  -2.59964769746377

