%nproc=8
%mem=4000MB
#opt=(noeigen,calcfc,ts,recalc=5,maxcyc=200) freq B3LYP/SVP em=GD3BJ

ts-1692.gjf

0 2
O  2.56384382565694  1.94987890815947  -0.80819776159299
H  3.51763018542804  1.95916518040800  -0.69334090360632
C  3.28578127481476  -3.71288082146192  1.08380762950612
C  3.54844552627981  -2.92538310267172  2.23709671258437
C  3.13717483929434  -1.65986037068830  2.44285086299592
C  2.37638727630023  -0.88249335655048  1.51106961982431
C  2.25025225262925  -1.74947024128249  0.40859338904791
C  2.32578563063910  -3.08209755789018  0.31128609088007
H  4.41155899140547  -3.26024947164637  2.77560742257772
H  3.10695968778536  -1.20141583159976  3.41944441729977
C  -0.80262300398653  2.24836261563615  -0.40449790636543
C  -0.43261203016535  2.41331503773756  -1.77001895373903
C  -2.11351461802405  2.38829669901023  -0.09551688210908
C  -1.35460763606905  2.72084674026427  -2.75955245760996
H  0.67694535529758  2.49628289581324  -1.91360472956132
C  -2.97289647635080  2.74886613783455  -1.22871386517957
C  -2.74759936386631  2.80467106423125  -2.54332388135058
H  -1.14738653467356  2.82367327535556  -3.80323648989751
H  -4.03844150064385  2.85214081941973  -0.97673407265829
Cl  3.91783141007979  -5.18381814806904  0.35034734318737
Cl  -3.98309135733599  3.45976958475617  -3.73821690284247
N  1.67296197716844  0.36407312016696  1.41038098334114
H  2.20790526968380  0.95861091516513  2.02618976454295
C  0.82464709711709  0.78196606231243  0.32228993177446
O  0.40890875829117  0.24109399758975  -0.69329697504425
N  0.17236366101328  1.88033712395426  0.65209879620054
H  -0.13696756813375  2.50066030992881  1.35969361192654
H  -2.62615737609214  2.05935730867137  0.76920323859486
H  1.62322377307546  -1.36730443524881  -0.40776431031949
Cl  1.47065534793756  -4.00361664708467  -0.87339841030456

