%nproc=8
%mem=4000MB
#opt=(noeigen,calcfc,ts,recalc=5,maxcyc=200) freq B3LYP/SVP em=GD3BJ

ts-1722.gjf

0 2
O  6.60140277646455  0.02045736350967  -0.17857189380057
H  7.50472178953271  0.34029218911799  0.11231369868006
C  3.17413411504441  -3.10959931185363  0.71250849996253
C  3.52501307332606  -1.86771297492259  1.08986546874821
C  2.74445628612364  -0.70740030428888  1.00735251341427
C  1.47179665255624  -0.99242910378276  0.69277582579134
C  1.17890829704098  -2.27318863659176  0.16753395839374
C  1.92159792040587  -3.38671391515951  0.00291445588409
H  4.57540968869663  -1.71374938978911  1.25838781771269
H  3.07556598826698  0.29918496688230  1.34822149050194
C  -0.87879971586166  2.38958722286164  -0.75062921014429
C  -0.97948446751612  2.22612648789660  -2.11272535411308
C  -2.05787950155830  3.01122235374237  -0.36225366445321
C  -1.87159959797078  2.91697093150306  -3.03357017348857
H  -0.17167941950127  1.66518633040374  -2.61758470523916
C  -3.16810637585280  3.10942809892728  -1.15328027256339
C  -3.03916603246122  3.29252712706536  -2.53959588677076
H  -1.73016793155846  2.75802940173352  -4.08493760310100
H  -4.05326322047006  3.57348518363493  -0.71413442602025
Cl  4.06075109976315  -4.43594363691161  1.66269612510141
Cl  -4.48479309953922  2.88574553112239  -3.62121197771728
N  0.39199208176823  -0.10299364600882  0.65283625685797
H  6.91273519937241  -0.79558155542872  -0.83852089319267
C  0.78681486297429  0.83727288066170  -0.20552625693170
O  1.60991309312099  0.80696484830655  -1.14798357439912
N  0.06000620221826  2.03428688875068  0.11639181775999
H  -0.00529718819696  2.16737932330451  1.12598738788022
H  -2.20268541106930  3.21265975366696  0.67797484186277
H  0.19457522380530  -2.37296172575702  -0.40819496345522
Cl  1.72369121013289  -4.92430233802321  -0.84189192674033

