%nproc=8
%mem=4000MB
#opt=(noeigen,calcfc,ts,recalc=5,maxcyc=200) freq B3LYP/SVP em=GD3BJ

ts-1732.gjf

0 2
O  7.94908917499464  -0.45373552864634  -0.18874946363127
H  7.75131619208630  -1.06706643009233  -0.88916875332985
C  3.15867286307362  -3.18804461950853  0.84986403408227
C  3.20872863733685  -1.86760455974345  1.20624671309438
C  2.39024953799951  -0.81218466510222  0.75834017303568
C  1.22904847149641  -1.19362335773009  -0.09237059157084
C  1.05193265065174  -2.52999766072028  -0.46068519218371
C  1.95658047181451  -3.43275095155789  0.08306605512595
H  3.86317829475499  -1.64748959344757  2.06141654887059
H  2.43297369114976  0.19689801055444  1.15772639899040
C  -1.06237438061481  2.79203876734706  -0.87907771793892
C  -0.93693768205834  3.37012042575834  -2.20119818946430
C  -2.38564302455578  3.05768717491928  -0.32844073148683
C  -2.15227131750665  3.04249227292548  -2.94455859544392
H  -0.08227263122603  3.76374916629224  -2.68016696175414
C  -3.51334237317480  3.34770502667557  -1.01344732631565
C  -3.38382034680367  2.89873837828201  -2.40377246657058
H  -2.04371625879076  3.14931648005188  -4.02121483758226
H  -4.46969203977897  3.66661865629574  -0.62652196536097
Cl  4.11917750108676  -4.18670319899232  1.74003476760500
Cl  -4.64870682957497  3.06892001612319  -3.32278455361070
N  0.31428603089694  -0.24047576652770  -0.26645657963770
H  7.67700328691143  0.14593996814811  0.41175413314926
C  0.66258107897003  1.03547792875040  -0.58157681230100
O  1.68797958784254  1.26928847799571  -1.12167213534767
N  -0.16172364733938  2.13010130561387  -0.11737794890187
H  -0.43124644372936  2.04144364997574  0.87585114929601
H  -2.46217060340487  3.21822923467591  0.76353324902974
H  0.12848265013309  -2.87648800170765  -0.85290355325621
Cl  1.89268706202864  -5.02361978639679  -0.24647691615390

