%nproc=8
%mem=4000MB
#opt=(noeigen,calcfc,ts,recalc=5,maxcyc=200) freq B3LYP/SVP em=GD3BJ

ts-5162.gjf

0 1
Cl  1.89021265250154  -4.89998168373455  -3.13610488951798
O  4.72798900321585  -4.42330127175778  -2.94324338238505
C  1.37276002547492  -0.77527739732437  -0.34038411324377
C  2.24355431705100  -1.87819366259799  -0.14112681303833
C  2.04972340202309  -2.60535776130657  -1.36889791363123
C  2.80553062418066  -3.69314612986037  -1.92788264511566
C  0.87198403414277  -2.19666056857337  -2.03483706193239
C  0.52647359210069  -1.01634781660305  -1.41092619465152
H  2.90682026906631  -2.03485255666023  0.68991048747824
Cl  1.10295005442811  0.66193905413353  0.64196022611366
N  4.13001841521191  -3.79361851800670  -2.03129833909459
H  0.45275889989857  -2.58056103515790  -2.90537948508840
Cl  -0.82720995284001  -0.31695605662954  -2.27707067790688

