%nproc=8
%mem=4000MB
#opt=(noeigen,calcfc,ts,recalc=5,maxcyc=200) freq B3LYP/SVP em=GD3BJ

ts-227.gjf

0 1
O  -1.06894453190063  -3.65274113246014  -3.47773227562691
Cl  0.59607466504882  -3.00449210595851  -3.16546749693117
H  -1.71300449650336  -3.72462508853579  -2.77042348647552

