%nproc=8
%mem=4000MB
#opt=(noeigen,calcfc,ts,recalc=5,maxcyc=200) freq B3LYP/SVP em=GD3BJ

ts-257.gjf

0 1
O  -0.55300615477233  -3.41400791936332  -4.60394324411058
Cl  -1.55261513751012  -4.70881679833762  -3.15044435389490
H  -1.22646176229444  -2.74370498515557  -4.53011254042319

