%nproc=8
%mem=4000MB
#opt=(noeigen,calcfc,ts,recalc=5,maxcyc=200) freq B3LYP/SVP em=GD3BJ

ts-1420.gjf

1 1
O  -3.93820971460661  -3.69426671436995  -4.48121645603199
H  -4.01503595867783  -3.38382315751239  -5.50462358203788
C  1.80337812565870  1.82926027177934  3.39385248996247
C  2.58020312864194  1.36768101184211  2.37388751010602
C  1.85406074851415  0.77013595752944  1.30492006942727
C  0.50484937537063  0.63316604623039  1.23483098537578
C  -0.27572414862962  1.32825392200716  2.25331825409998
C  0.44177051323920  1.61698851196022  3.43609822268798
H  3.64260581811987  1.22942104552030  2.41968790365867
H  2.46553841813293  0.20267735854901  0.60782862938804
C  -2.03015883268407  -0.77939034667157  -2.33222368818162
C  -2.96903206911654  -0.42517114295037  -3.35529911631453
C  -2.07791749363506  -2.13641685766250  -1.83992491985130
C  -3.67049429297732  -1.31956440782455  -4.14166228459089
H  -3.06672898936177  0.63344267981472  -3.46352467699969
C  -2.95601548338810  -2.96774486654626  -2.46252570939262
C  -3.50002888251229  -2.68397051770382  -3.71716281563886
H  -4.31302301255189  -0.95862320605944  -4.94600208671527
H  -3.24317887865168  -3.93404124882311  -1.93165612855959
Cl  2.69741224863645  2.63161658320017  4.60409541073103
N  -0.17836536868714  -0.01603387968808  0.26062114426341
H  -1.08411822161769  -0.30723416775541  0.62119604088927
C  -0.10877215812711  0.50901562347748  -1.05499151994643
O  0.87377223710250  0.87658347240250  -1.54548303240112
N  -1.30226906878498  0.22562629424331  -1.79207899957853
H  -1.78383801455797  -2.31411988366600  -0.78211130933788
H  -1.35150632096794  1.37274465977725  2.22892346736943
Cl  -0.20248307971598  1.91261385129586  4.93622580738548

