%nproc=8
%mem=4000MB
#opt=(noeigen,calcfc,ts,recalc=5,maxcyc=200) freq B3LYP/SVP em=GD3BJ

ts-2178.gjf

0 2
O  -0.10581062403515  -1.22382584637820  -5.00740636245870
Cl  -0.03942650625572  -2.85508606303669  -5.43924008300020
C  2.73904220920081  -2.57156815062186  -3.69035709004770
C  1.82762984208844  -3.26586194728907  -2.93045373742950
C  0.86038941138653  -2.57106871233824  -2.01294928269879
C  0.25273924077012  -1.45719413102265  -2.63767778412375
C  0.91079479075382  -0.90554085247657  -3.98478514503960
C  2.27681869556553  -1.40988214823808  -4.34602675582407
H  2.00602864123516  -4.17448967094808  -2.47812251325161
H  0.42120699202939  -3.04988745366402  -1.16093292295905
Cl  4.28429969558091  -3.08892128441774  -3.88036470186411
N  -0.59290063467037  -0.45524709100498  -2.07016379003275
C  -0.48059701900775  0.71072977040705  -1.82676691661721
O  -0.07227913649168  1.75927530868002  -1.49714975270327
H  1.04843482240741  0.16287081736486  -3.79716046281424
Cl  3.24534914036749  -0.13881191505122  -5.06324426403440

