%nproc=8
%mem=4000MB
#opt=(noeigen,calcfc,ts,recalc=5,maxcyc=200) freq B3LYP/SVP em=GD3BJ

ts-417.gjf

0 1
O  0.86291642358520  3.63345986409494  -1.04878848779939
Cl  2.13041988503693  3.85904185603979  -2.81301193400146
H  1.37224180651766  4.03641272438343  -0.36259435794730

