%nproc=8
%mem=4000MB
#opt=(noeigen,calcfc,ts,recalc=5,maxcyc=200) freq B3LYP/SVP em=GD3BJ

ts-2482.gjf

0 1
O  1.08995704832366  1.30910206678444  2.64186241945826
Cl  1.84443233278526  2.31433260851732  1.61897777783040
C  2.13874624749470  -3.10864559581568  -2.55330185006295
C  1.41338325247322  -2.48817388237896  -3.57819637652435
C  0.92316428653941  -1.17397120932878  -3.39550403371044
C  1.30044739331799  -0.48811829598017  -2.19281178905570
C  1.93424638660963  -1.14214691974432  -1.11844309480262
C  2.49851552678393  -2.31360840988071  -1.40139931104879
H  1.21382018899057  -3.07794448761061  -4.45832793709143
H  0.41527988321573  -0.61147706179087  -4.16136076732975
C  -0.59283794185142  3.58061045006418  -1.43057566460219
C  -1.34664317227379  3.58988549994280  -0.24899727535235
C  -0.96466722753975  4.48311144687909  -2.52488925246544
C  -2.62050353444642  4.25181288703124  -0.18932969648084
H  -1.23375293312554  2.80603145807611  0.47242207659120
C  -2.18567281963904  5.06853805525857  -2.43605323912263
C  -3.03997463172655  4.98164512373139  -1.29063466388617
H  -3.23043609875352  4.13835250561523  0.72636528229261
H  -2.45803922637267  5.54073406948889  -3.37354469246616
Cl  2.61011282281951  -4.73189366356132  -2.67568478453459
Cl  -4.67035400888885  5.39894172784689  -1.33611368509203
N  1.31300880379976  0.81590968837648  -2.43898360265150
C  1.24183007127533  2.14118412945358  -2.41579810601597
O  1.67011487664550  2.81770167462790  -3.39458102767670
N  0.55986446438012  2.82888074790923  -1.42327954258653
H  0.57497894978129  2.23479847674329  -0.59842306956289
H  -0.24845241965046  4.62975225391627  -3.34897053977849
H  2.48120612949315  -0.60710198021430  -0.36961563876099
Cl  4.01021164652274  -2.94522502055608  -0.73583674716290

