%nproc=8
%mem=4000MB
#opt=(noeigen,calcfc,ts,recalc=5,maxcyc=200) freq B3LYP/SVP em=GD3BJ

ts-267.gjf

0 1
O  -0.09994133826934  -3.07319405241501  -4.06615148473946
Cl  -2.25125644324035  -5.14135291001783  -3.08047247401810
H  0.23075586662215  -3.96116898780564  -3.88186373618020

