%nproc=8
%mem=4000MB
#opt=(noeigen,calcfc,ts,recalc=5,maxcyc=200) freq B3LYP/SVP em=GD3BJ

ts-199.gjf

0 1
O  1.83655675061068  -0.49761503793637  4.94130688122426
Cl  3.35695589553658  -0.85210047961778  3.75413786299581
H  2.35680607489377  -0.34814745425810  5.77790124280983

