%nproc=8
%mem=4000MB
#opt=(noeigen,calcfc,ts,recalc=5,maxcyc=200) freq B3LYP/SVP em=GD3BJ

ts-5693.gjf

0 1
O  -4.58084264769176  3.28559357945336  0.47454659496991
H  -4.15524798231939  3.62154964058797  1.30604630736011
Cl  -5.13540978134542  1.76101811989894  -2.02086135802824
Cl  -2.09766944236784  -1.07127461574273  4.42574476926074
C  -3.61909639252054  2.38325653206579  -1.59697768897665
C  -3.52128279579248  2.77612179376787  -0.24732046815070
C  -2.31874600560600  2.79249467460175  0.45238624388003
C  -1.05956235820688  2.71800262333616  -0.15825267963999
C  -1.19927531478140  2.65118447608787  -1.58544044961967
C  -2.37417268132009  2.39226183465829  -2.29145507217271
H  -2.41442720709686  3.10852010657852  1.46614447425277
C  3.29263785420934  1.03392021889641  0.95745353378351
C  3.08937148914694  0.20888700156888  2.04970963788626
C  4.56358825484305  0.71756309631820  0.36402154777245
C  4.05700224194983  -0.41537313401903  2.73785167419084
H  2.12455301838562  0.24065657449204  2.60175839300899
C  5.63968182338941  0.16689949803367  0.95971962875756
C  5.30729489668297  -0.62528990210089  2.04340850813722
H  3.70039240489011  -0.79912711575142  3.67277997221394
Cl  7.41388764389626  0.31785235653523  0.58279644615781
Cl  6.39240144923631  -1.70013203736411  2.67099888727469
N  0.00169224154338  2.52389831709979  0.53720343897728
C  1.02900751052645  1.99771986595290  1.20744929872493
O  0.75101649062277  1.69271331830211  2.36119682572729
N  2.23002948403184  1.84503479952595  0.52282030822697
H  -0.24020622604250  2.70618269246686  -2.11785901954043
Cl  -2.35366312660344  1.99961143545750  -3.88243356784605

