%nproc=8
%mem=4000MB
#opt=(noeigen,calcfc,ts,recalc=5,maxcyc=200) freq B3LYP/SVP em=GD3BJ

ts-229.gjf

0 1
O  2.44628642644259  -2.44352514544992  2.53203493490304
Cl  3.93144156563341  -1.05663780503160  4.46695207222765
H  2.13759579755350  -1.58079709122644  2.44146774792716

