%nproc=8
%mem=4000MB
#opt=(noeigen,calcfc,ts,recalc=5,maxcyc=200) freq B3LYP/SVP em=GD3BJ

ts-1410.gjf

0 1
O  -1.75939816491709  3.24266756880541  -3.21477916696168
Cl  -0.54164650399753  2.62101254925005  -2.20184488187383
H  -1.20921441234450  3.95706881775022  -3.57003147947189

