%nproc=8
%mem=4000MB
#opt=(noeigen,calcfc,ts,recalc=5,maxcyc=200) freq B3LYP/SVP em=GD3BJ

ts-1420.gjf

0 1
O  -2.06546254199705  1.98122274045261  -3.34769537889942
Cl  -0.75473823206630  2.73554532431173  -1.78862523871089
H  -2.96703215112066  1.72466995642169  -3.50049896444917

