%nproc=8
%mem=4000MB
#opt=(noeigen,calcfc,ts,recalc=5,maxcyc=200) freq B3LYP/SVP em=GD3BJ

ts-5245.gjf

0 1
O  -1.11006844568739  3.72025887794749  1.60420035251393
Cl  1.69472657393256  2.21206761952977  -0.89946094430933
H  -1.14526045356741  3.79448171045695  0.66878478071055

