%nproc=8
%mem=4000MB
#irc=(noeigen,calcfc,LQA,maxpoints=300,stepsize=10) UB3LYP/SVP em=GD3BJ

irc-293_2-irc.gjf

0 1
O  1.10364700000000  3.87301300000000  -2.08006300000000
Cl  2.10345600000000  3.68297600000000  -4.55894400000000
H  1.44882100000000  3.28546200000000  -1.37274900000000

