%nproc=8
%mem=4000MB
#opt=(noeigen,calcfc,ts,recalc=5,maxcyc=200) freq B3LYP/SVP em=GD3BJ

ts-4683.gjf

0 1
O  1.96429490011971  -0.15573644645613  -7.37018422518684
H  1.14380728955409  -0.67287353790361  -7.21517878759938
Cl  0.16488321945023  -2.94187286620645  -7.42133279627574

