%nproc=8
%mem=4000MB
#opt=(noeigen,calcfc,ts,recalc=5,maxcyc=200) freq B3LYP/SVP em=GD3BJ

ts-4713.gjf

0 1
O  0.39913484231052  -0.23783277978442  -7.35879633046001
H  0.50819865783438  0.12516742443859  -8.26834416819632
Cl  -0.39618421392520  -2.14440259153191  -7.52904388891007

