%nproc=8
%mem=4000MB
#opt=(noeigen,calcfc,ts,recalc=5,maxcyc=200) freq B3LYP/SVP em=GD3BJ

ts-1799.gjf

0 1
O  3.41604801519963  -4.56864823153294  1.14690599112713
Cl  2.85550275109467  -5.06126571153634  2.59203922039407
H  3.98056378045071  -5.24175411550438  0.74153314367639

