%nproc=8
%mem=4000MB
#opt=(noeigen,calcfc,ts,recalc=5,maxcyc=200) freq B3LYP/SVP em=GD3BJ

ts-4273.gjf

0 2
O  3.97945227325875  -3.27805086686992  -3.26666402263669
Cl  -0.97746788625831  -3.90499096454919  -3.88180094330805
H  4.29297987847287  -2.64862868900506  -2.59342338429919
C  -5.67160314888224  -2.02650396548341  -0.78225518248733
C  -4.69344350176545  -1.37276054843975  0.03518093872272
C  -3.37320646979164  -1.75733643851369  -0.22467257026251
C  -2.99365724894783  -2.66117613819502  -1.23396184961546
C  -3.98687830433773  -3.39666035477165  -1.88745076655892
C  -5.28700994773454  -2.98027559247957  -1.73382424213018
H  -4.69208269139856  -1.05120504360844  1.07613998857557
H  -2.53338671397545  -1.32638488046513  0.34226930696410
C  1.35955842296113  -4.30280505094958  -0.91935467650395
C  2.81431314043276  -3.84607677869442  -3.02992123161794
C  1.44608808513375  -5.26100087559003  0.08138057981501
C  2.70701597115848  -4.23332903676349  -1.68225556090081
C  2.81520957306014  -5.64045237495353  0.21424745340843
C  3.50060190175547  -4.95723054873381  -0.82046961708207
H  3.31254180207614  -6.33820581419939  0.86178492540518
Cl  -7.37172726413927  -1.73141965594812  -0.60930235228342
Cl  5.12952870816822  -5.27613729122987  -1.06147054431302
N  -1.75417262359911  -2.99500761115175  -1.32060236610469
C  -0.86833840696028  -3.47451872241259  -2.07360013901110
O  2.13444441416026  -4.12950288528905  -4.04095512120573
N  0.43164055198903  -3.85227619691391  -1.85930717945945
H  0.73351638480456  -4.11729933717054  -2.84193968527859
H  0.67370475111917  -5.85947579573705  0.54122432059827
H  -3.65949906995931  -4.20627668749847  -2.54418779989666
Cl  -6.44778047989181  -3.63084922507057  -2.83859328954216

