%nproc=8
%mem=4000MB
#opt=(noeigen,calcfc,ts,recalc=5,maxcyc=200) freq B3LYP/SVP em=GD3BJ

ts-4283.gjf

0 2
O  3.76082244974911  -2.75813605638436  -2.87896306034990
Cl  -1.15787636342027  -3.57926589675237  -4.03681491157272
H  4.08543406515086  -2.44570543094274  -2.03542303913458
C  -5.62982627778135  -2.11701334339826  -0.72644309551687
C  -4.66714607025379  -1.32308344638060  -0.07672305291125
C  -3.32346789180907  -1.83051371649360  -0.06799599656050
C  -2.94889776634745  -3.00594559969910  -0.97433793201723
C  -3.98187169243553  -3.45046638254034  -1.86859986056895
C  -5.26585331771751  -3.03458418495392  -1.75408259718869
H  -4.78246327137210  -0.49114870598982  0.59208268524662
H  -2.49762626100782  -1.41618389511546  0.44800432441546
C  1.18746739084061  -4.79598181324017  -1.20394372807221
C  2.93576524065440  -3.78954105252507  -2.78055987918247
C  1.31871897328448  -5.49487869965794  -0.05842695251934
C  2.66348529980454  -4.59252659167971  -1.58284921155432
C  2.72692402011664  -5.72238954912131  0.40733240184846
C  3.49000416057062  -5.24428240379818  -0.64023745670123
H  2.95978743248973  -6.45533767818401  1.12702818640287
Cl  -7.30868551950461  -1.60257335297807  -0.61024496621025
Cl  5.14521141441953  -5.07940273774304  -1.01573986271336
N  -1.66097361491571  -3.56324436388820  -1.13329871455918
C  -0.91833581925609  -3.81875448761636  -2.11774828072613
O  2.39137645442642  -4.13697125673648  -3.74625430427201
N  0.33709304190784  -4.44155410187415  -2.15876521315811
H  0.66327477246682  -4.44039317290920  -3.12569998821903
H  0.44232641758501  -5.93416086343630  0.40147862410909
H  -3.75450532190316  -4.07880301002167  -2.71457180377582
Cl  -6.46307418465938  -3.20941731603108  -3.04855853880413

