%nproc=8
%mem=4000MB
#opt=(noeigen,calcfc,ts,recalc=5,maxcyc=200) freq B3LYP/SVP em=GD3BJ

ts-1809.gjf

0 1
O  3.69248528498274  -4.17302358380720  0.98097453295580
Cl  2.99074868115050  -5.18182045886238  2.10820168291432
H  3.40701371766171  -3.31433499509351  1.40929543605415

