%nproc=8
%mem=4000MB
#opt=(noeigen,calcfc,ts,recalc=5,maxcyc=200) freq B3LYP/SVP em=GD3BJ

ts-2658.gjf

0 1
O  2.50461253846723  -4.03484565521441  -3.25276621202172
C  2.52069850352446  -1.03319821572445  -0.99892011221487
C  3.90059918677027  -1.09948259115702  -0.64057085662413
C  4.66657581761231  -2.17011498810348  -1.21086429910481
C  4.21872937504383  -3.28118261959669  -1.76478163779698
C  2.74859953331107  -3.40872317542385  -2.18739126440212
C  2.16867857696039  -1.92776164244092  -2.09002532596148
H  4.45301207701668  -0.34703532790479  -0.10720607227945
H  5.74547262948087  -1.95465471635617  -1.28079558563420
Cl  1.57909192324103  0.30859283460678  -0.46517087178909
N  4.94108546586209  -4.35443532688143  -2.16688293509619
C  5.87451928973209  -4.74612990314037  -2.81451901933178
O  6.92637212578805  -4.81506468868386  -3.29942253113220
H  2.19783438749179  -3.81156525991332  -1.23052297611642
Cl  0.83282693664524  -1.73992203323732  -3.14911800596720

