%nproc=8
%mem=4000MB
#opt=(noeigen,calcfc,ts,recalc=5,maxcyc=200) freq B3LYP/SVP em=GD3BJ

ts-1337.gjf

0 1
O  5.11111868679891  -4.06764173683278  4.90194967579608
Cl  5.52986131554297  -0.12294706306003  1.73223407769475
H  5.64841704125818  -3.80155097420180  5.66156479432356

