%nproc=8
%mem=4000MB
#opt=(noeigen,calcfc,ts,recalc=5,maxcyc=200) freq B3LYP/SVP em=GD3BJ

ts-5195.gjf

0 1
O  0.87867010791464  3.68867698687576  -1.53726094983095
Cl  1.06341774345900  3.02169791680579  0.08342052551303
H  1.49277192836507  3.52895357351330  -2.22163718462536

