%nproc=8
%mem=4000MB
#opt=(noeigen,calcfc,ts,recalc=5,maxcyc=200) freq B3LYP/SVP em=GD3BJ

ts-5205.gjf

0 1
O  0.72639474219454  3.89101638054318  -1.83956820383472
Cl  1.27418369199410  3.00417597643596  -0.46309493740625
H  1.18545351999817  4.61580004839266  -1.44308902680655

