%nproc=8
%mem=4000MB
#opt=(noeigen,calcfc,ts,recalc=5,maxcyc=200) freq B3LYP/SVP em=GD3BJ

ts-5225.gjf

0 1
O  -0.92042111180871  3.54007292059363  -0.12568677538659
Cl  1.58264397731681  2.53440537044626  -0.98705431047469
H  -0.96673669162158  4.36865744647956  -0.59495199519963

