%nproc=8
%mem=4000MB
#opt=(noeigen,calcfc,ts,recalc=5,maxcyc=200) freq B3LYP/SVP em=GD3BJ

ts-3358.gjf

0 2
Cl  -1.45266689081790  2.67773364231700  -3.70404695003527
O  0.70248724772904  1.21529368457462  -4.19420143124403
H  -0.19802285938946  1.88710498120290  -3.93670388464869
H  -0.44983003222721  0.61338158271816  -2.46577627797152
C  3.34462204405087  -0.30016292753161  -2.51629989639589
C  3.31559100599312  -0.64699150663327  -1.13427543890232
C  4.67151318429134  -0.20331040765686  -3.11386951548159
C  4.32827970013270  -1.28499968448376  -0.53879748245140
H  2.52587554310283  -0.31653851443308  -0.41219495570779
C  5.59927897369117  -1.17417805894751  -2.62206539824601
C  5.44220796996792  -1.47111962631023  -1.34694271905721
H  4.35036239521450  -1.56854876346085  0.49239617651052
H  6.38974737243229  -1.49774970231352  -3.29781781215042
Cl  6.60685358677256  -2.51568227592107  -0.50991618578326
C  1.23477472372093  0.88568084141368  -3.16768914711705
O  0.57185739339387  0.74726058071864  -2.03381436117599
N  2.49054097510484  0.42688144634152  -3.18373638526747
H  4.81176394197022  0.31895670493986  -4.01466483513565

