%nproc=8
%mem=4000MB
#opt=(noeigen,calcfc,ts,recalc=5,maxcyc=200) freq B3LYP/SVP em=GD3BJ

ts-5610.gjf

0 2
H  -1.04385174201902  0.71819947713816  -0.72978676662194
O  -1.20566783134513  2.69114635924029  -5.28749703651338
H  -0.83032168654616  2.32229890954791  -6.11676912328608
O  -1.85623720509901  -1.53780708186123  -2.74364581120025
Cl  -3.80265376651215  0.55801526859855  -5.67545630844714
C  -1.23425069138407  1.97969023388671  -2.40986991665030
C  -2.56948350817305  2.34636412358475  -2.33062479936198
C  -1.03130195915887  0.60081990589821  -1.86774313852806
C  -3.58214540982004  1.43015608405720  -2.12797494357932
H  -2.84104850911906  3.38558566082931  -2.09567680520592
C  -2.19502676028792  -0.57461678486790  -1.95574741575441
C  -3.52471621893295  -0.00717974606474  -2.00251419711354
H  -4.56917990150081  1.88557204533207  -2.13311052271862
H  -2.20667730450687  -1.00970064668934  -0.91287035313225
Cl  -4.65677893482950  -1.16727846729881  -1.29717649313706
C  -0.41601887488683  3.25696675663291  -4.30231997249332
O  -0.16151483957653  4.43280894582252  -4.28015206925972
N  -0.23179897419069  2.77952832873210  -2.93119906874061
H  -0.12668380009270  0.15980440489791  -2.28165890143590

