%nproc=8
%mem=4000MB
#opt=(noeigen,calcfc,ts,recalc=5,maxcyc=200) freq B3LYP/SVP em=GD3BJ

ts-3609.gjf

0 1
O  1.88430520795120  0.34362225373390  -2.21461308894576
Cl  1.24334262828909  1.74815882572697  -1.27587076808670
H  2.76470641406225  0.57374628678028  -2.62692830822199

