%nproc=8
%mem=4000MB
#opt=(noeigen,calcfc,ts,recalc=5,maxcyc=200) freq B3LYP/SVP em=GD3BJ

ts-3659.gjf

0 1
O  4.84791052185758  3.47125897727027  -2.49873009041911
Cl  0.61506417207374  1.05040218926425  -2.94418860280670
H  4.44123351500677  3.79639038689997  -3.30149710434434

