%nproc=8
%mem=4000MB
#opt=(noeigen,calcfc,ts,recalc=5,maxcyc=200) freq B3LYP/SVP em=GD3BJ

ts-1561.gjf

0 1
O  0.34822206547275  3.99005467932322  5.63698830201450
Cl  0.25924264512076  0.98163666705024  5.42887056610743
H  0.76739699151691  4.31641198345885  4.83046525029139

