%nproc=8
%mem=4000MB
#opt=(noeigen,calcfc,ts,recalc=5,maxcyc=200) freq B3LYP/SVP em=GD3BJ

ts-399.gjf

0 1
O  1.46776043085544  -2.68504839325044  4.10647505552191
Cl  2.38122853842583  -2.55560867291368  5.51511002729457
H  1.22344991235991  -1.89816310177811  3.64454575509452

