%nproc=8
%mem=4000MB
#opt=(noeigen,calcfc,ts,recalc=5,maxcyc=200) freq B3LYP/SVP em=GD3BJ

ts-833.gjf

0 2
C  3.89033765152052  -1.66377405254542  -2.20705712381197
C  3.20256773766745  -1.09714290716790  -3.29560013750575
C  2.45775991513118  0.11967936840407  -3.03679310593878
C  2.74742108226222  0.94031711168387  -1.91481539104810
C  3.84857042164608  0.53670750899035  -1.09065933833503
C  4.06016439478266  -0.89288975116703  -1.05947452764107
H  3.06107240438198  -1.55523223449802  -4.22889630918294
H  1.93705816604219  0.77342357158566  -3.76262660112137
C  -0.61696619714596  3.35039841146570  -0.04667182082064
C  -1.23626167488567  4.66128248747238  0.15406081311016
C  -1.61713428936796  2.30057802763755  -0.20130318347366
C  -2.61462379395459  4.93051841801654  0.25116331171762
H  -0.53665811238754  5.51576672267833  0.00390047886801
C  -2.98174314381819  2.67105491712639  -0.28812897946240
C  -3.57092552439933  3.94247345531480  -0.06555738961807
H  -2.86512126173354  5.88853060875833  0.66615201145455
H  -3.67104965041088  1.92291255314099  -0.63503968927249
Cl  4.48685213194701  -3.32345348901417  -1.78968343846060
Cl  -5.34557740610759  4.32901379748564  -0.02346286468828
N  2.03467805652947  2.00796737520207  -1.63459892603186
C  1.96971103652218  2.57837855851753  -0.43401165008731
O  2.92327922323044  2.83981255176447  0.18805107158885
N  0.66501334355539  3.44214921728184  -0.35721743425755
H  1.03738396751626  4.39727591599698  -0.49485400070340
H  -1.37087412263366  1.27306102695622  -0.40869454321299
H  4.06095505512250  1.06900067522779  -0.16644800167206
Cl  4.93858632629605  -1.42737323883203  0.30254169463526

