%nproc=8
%mem=4000MB
#opt=(noeigen,calcfc,ts,recalc=5,maxcyc=200) freq B3LYP/SVP em=GD3BJ

ts-662.gjf

0 1
O  0.04457209554344  4.63054363856321  3.80844751688217
Cl  0.06140280710647  4.14517492882921  1.39977287646662
H  -0.75752336073749  5.11319553681652  3.97117939518522

