%nproc=8
%mem=4000MB
#opt=(noeigen,calcfc,ts,recalc=5,maxcyc=200) freq B3LYP/SVP em=GD3BJ

ts-1644.gjf

0 1
Cl  -2.38943662193532  4.53610730110030  -1.18197555737257
O  -4.97419895596772  2.78699715544383  -2.72160114446931
H  -5.28607183342049  3.55009387035156  -2.21259733408265

