%nproc=8
%mem=4000MB
#opt=(noeigen,calcfc,ts,recalc=5,maxcyc=200) freq B3LYP/SVP em=GD3BJ

ts-284.gjf

0 1
O  -2.34755513325094  -0.53749981687070  -0.73414832493579
Cl  -3.31533027684593  1.52614375673048  -1.00447373423003
H  -2.14560366855778  -0.91459420832534  -1.59858827139031

