%nproc=8
%mem=4000MB
#opt=(noeigen,calcfc,ts,recalc=5,maxcyc=200) freq B3LYP/SVP em=GD3BJ

ts-4716.gjf

0 1
O  0.84574305676761  0.74269083060654  -4.83707162500616
Cl  -0.47734659543118  0.75821741133120  -5.75205208323476
H  0.09015190972076  0.83619013884192  -4.07256888552912

