%nproc=8
%mem=4000MB
#opt=(noeigen,calcfc,ts,recalc=5,maxcyc=200) freq B3LYP/SVP em=GD3BJ

ts-4726.gjf

0 1
O  0.89717622373383  -0.14857697000744  -4.68272927218190
Cl  -0.22552799425842  0.55549071082620  -5.71533634636760
H  1.77633266280791  -0.60469818750508  -4.84016951046860

