%nproc=8
%mem=4000MB
#opt=(noeigen,calcfc,ts,recalc=5,maxcyc=200) freq B3LYP/SVP em=GD3BJ

ts-3404.gjf

0 2
O  -1.74812672076489  1.33622879019520  -2.93606258681793
H  -2.05544930071996  0.42971089370323  -2.89326598279159
O  -0.92431758541213  -2.50873430087005  -4.69789986454743
Cl  1.09110088155653  2.18241405025363  -3.46879552952268
C  -1.12427205653468  3.20578487988594  -1.46690075501582
C  -1.00913149989421  1.73142266879523  -1.73764280048617
C  0.52301728712327  1.31296077544404  -2.01560402463820
C  1.09895134551103  1.66917596846996  -0.61535732545079
C  0.74084093946467  2.96846541061197  -0.02933521156625
C  -0.15073859741486  3.79316948825939  -0.65976693603738
H  -1.37470212693176  1.14529342382463  -0.94117983585709
H  0.32243772157403  0.22926602263986  -2.15381503724676
C  4.00642860470409  -0.66741460925894  -0.89342260683025
C  4.81645715722967  -0.40126998483062  -1.95901922210984
C  2.99329895279788  -1.64070416512018  -1.07833945737471
C  4.54326601885173  -0.92320757163969  -3.19033533886174
H  5.63288940035104  0.30907193446198  -1.95042557289908
C  2.96950522334820  -2.40164456149715  -2.23102999374998
C  3.67658269644490  -1.97495767688564  -3.29536955991556
H  5.14066748679208  -0.88485726546190  -4.10478149600891
H  2.30698895024615  -3.26130614994871  -2.23215775730640
Cl  -2.27936919243731  4.30222489410049  -2.20934215558434
Cl  4.03501956558588  -2.98166712743461  -4.66105766664202
N  1.95778744702247  1.10499081391253  0.20140595697895
C  2.83278096396957  0.35891132768855  0.94585021968693
O  2.59014413772892  0.09435698005272  2.17159723808830
N  3.95973615848447  -0.13412926924165  0.32819858604384
H  -1.17193525076377  -3.19169720154948  -5.31849267815667
H  2.56826876360474  -1.96728166673332  -0.12331520238516
H  1.44127719604728  3.37069207873386  0.67915593156027
Cl  -0.08744673770047  5.45884324042653  -0.31483255636421

