%nproc=8
%mem=4000MB
#opt=(noeigen,calcfc,ts,recalc=5,maxcyc=200) freq B3LYP/SVP em=GD3BJ

ts-3454.gjf

0 2
O  0.17502813678423  3.62186702551416  -3.18232281704898
H  -0.29782660066932  3.43212360220482  -3.99147151849553
O  1.82638356534276  -4.28017482587911  -6.70852464006602
Cl  2.71668028612913  2.45077878658492  -2.41554505475222
C  -0.11164706223171  3.46095951521727  -0.89307699924346
C  -0.03317519242229  2.61547252359713  -2.14263042666563
C  1.16304156106025  1.59119684661588  -1.98748573272138
C  1.49827721278136  1.23258905173227  -0.56336729532687
C  0.89022809186228  1.94567448551082  0.58193550749884
C  0.04375425914016  3.03377789814522  0.37558649873847
H  -0.95242635443396  2.10248295226589  -2.29310033561302
H  1.18014023784165  0.81940194770850  -2.73553224358809
C  3.27855159528071  -0.87326645628534  -2.76851202250916
C  4.14376742728764  0.10135012193409  -3.33141087627597
C  2.49194530368156  -1.65455900926325  -3.60646017255279
C  4.17696704359801  0.13901699995787  -4.71009965531221
H  4.95189544515230  0.56867844625043  -2.85250545719618
C  2.37366071857274  -1.39855877306944  -4.95548186448540
C  3.31401627191509  -0.64006140647425  -5.52255841317560
H  4.81709265049916  0.74232698678712  -5.28729454168538
H  2.74905424027619  -4.01565069058436  -6.94002915784507
Cl  -0.97936547536039  4.86295977236650  -1.43402918696042
Cl  3.36594447941792  -0.83017580355624  -7.17061906230135
N  2.69114118773656  0.57895011399313  -0.42811878967355
C  2.97089873573556  -0.83260018183773  -0.31862045535718
O  2.88143652813486  -1.47165782375160  0.75040319761856
N  3.31021750619771  -1.43814046930324  -1.46889361101809
H  1.19430867209830  -3.83058098166413  -6.22627859918377
H  1.93906919880056  -2.39764076220553  -3.10795852523465
H  0.84333744405454  1.57191860081515  1.57671437874753
Cl  -0.76429514782828  3.90617201311090  1.67340921271681

