%nproc=8
%mem=4000MB
#opt=(noeigen,calcfc,ts,recalc=5,maxcyc=200) freq B3LYP/SVP em=GD3BJ

ts-2865.gjf

0 1
C  -1.04337906446816  -0.39425262163710  -4.17113854742899
C  -0.06566348529511  -0.77380203925411  -3.18219010580978
C  -0.39669143673303  -0.84093753904380  -1.83493513878242
C  -1.70867997242587  -0.62667018792628  -1.46954379301461
C  -2.61093520605032  0.00928444017007  -2.36987731120480
C  -2.32719819695801  -0.14343564456617  -3.76801359105940
H  0.97778237776378  -0.96698376541409  -3.41552757797274
H  0.19715298334289  -1.34854728715371  -1.06905103308696
C  -4.32332194152701  -2.10315003775537  1.99628037285906
C  -4.63243463953927  -0.69991032208103  1.99416708778932
C  -4.91080701110125  -2.95673016167324  2.97167735567976
C  -4.78307388484663  -0.32146911199644  3.49956612014989
H  -5.47624096870199  -0.15933099398110  1.49615772216404
C  -4.99001521878117  -2.61164814732681  4.30435387597893
C  -4.91484632260573  -1.20692267950863  4.56230486582459
H  -5.36059831152067  0.54169293410804  3.76872277148976
H  -5.22682501811561  -3.20754612144827  5.13212862729147
Cl  -0.31960861846829  -0.28321825948722  -5.67619345615957
Cl  -4.99885035582404  -0.43561439953179  6.06826601261974
N  -2.05797009851787  -1.10377686983254  -0.32352199339126
C  -3.01960406580596  -1.23893314705631  0.55378977095045
O  -3.48023082042790  0.00578206996597  1.21058993353662
N  -3.39516039830174  -2.48195478404596  1.07630806048270
H  -4.82995230428231  -3.99850780112281  2.81079654474981
H  -3.66301972742690  0.05340145146952  -1.96650036541014
Cl  -3.68316014648529  0.37059305467592  -4.90085072098317

