%nproc=8
%mem=4000MB
#opt=(noeigen,calcfc,ts,recalc=5,maxcyc=200) freq B3LYP/SVP em=GD3BJ

ts-419.gjf

0 1
O  2.88665854737394  -2.36616394709473  2.68277506512309
Cl  2.58025300681921  -1.92695543435867  4.27752803131714
H  2.08364777057625  -2.89690558669718  2.56416815273577

