%nproc=8
%mem=4000MB
#opt=(noeigen,calcfc,ts,recalc=5,maxcyc=200) freq B3LYP/SVP em=GD3BJ

ts-429.gjf

0 1
O  3.42530245202683  -2.82769014055409  2.02397344019955
Cl  2.55664556259324  -1.53395216686960  3.58066567797215
H  2.80781202484687  -3.48328486784277  1.59959215324217

