%nproc=8
%mem=4000MB
#opt=(noeigen,calcfc,ts,recalc=5,maxcyc=200) freq B3LYP/SVP em=GD3BJ

ts-449.gjf

0 1
O  3.68003035632315  -6.77123130446484  1.65752341534327
Cl  1.41570554688807  -0.68274560292117  3.30890345155576
H  3.49670397487364  -6.94216670524971  2.61145393839256

