%nproc=8
%mem=4000MB
#opt=(noeigen,calcfc,ts,recalc=5,maxcyc=200) freq B3LYP/SVP em=GD3BJ

ts-459.gjf

0 1
O  3.51283676146032  -8.26995099493902  1.50364907825669
Cl  0.79733409836578  -0.36811111176759  3.33160794006762
H  3.14490916128814  -7.68764462918006  0.85304573451973

