%nproc=8
%mem=4000MB
#opt=(noeigen,calcfc,ts,recalc=5,maxcyc=200) freq B3LYP/SVP em=GD3BJ

ts-1541.gjf

0 1
O  0.78777198611725  2.29619285037294  6.45785995454597
Cl  -0.29727935429511  2.24969931295846  4.66944850675739
H  1.35227555664084  1.47454312931715  6.32422676856361

