%nproc=8
%mem=4000MB
#opt=(noeigen,calcfc,ts,recalc=5,maxcyc=200) freq B3LYP/SVP em=GD3BJ

ts-3674.gjf

0 1
Cl  0.44884381330842  0.93460459343953  -3.58585227331553
Cl  -0.81101770345928  0.66236792701115  -1.91045669508557

