%nproc=8
%mem=4000MB
#opt=(noeigen,calcfc,ts,recalc=5,maxcyc=200) freq B3LYP/SVP em=GD3BJ

ts-4736.gjf

0 1
O  1.19279205487345  -1.05748881930746  -5.15869486047206
Cl  0.11813914645370  0.38188176337959  -5.67481304842968
H  1.07425515755347  -1.52574726909974  -6.04193503799099

