%nproc=8
%mem=4000MB
#opt=(noeigen,calcfc,ts,recalc=5,maxcyc=200) freq B3LYP/SVP em=GD3BJ

ts-4766.gjf

0 1
O  1.72325689023974  -1.91678610383407  -8.93757887111439
Cl  1.29651927175816  -0.09938431657748  -5.94685985398994
H  1.48590497232098  -1.81958168974513  -7.96052987883709

