%nproc=8
%mem=4000MB
#opt=(noeigen,calcfc,ts,recalc=5,maxcyc=200) freq B3LYP/SVP em=GD3BJ

ts-3316.gjf

0 2
O  -2.77105122857018  1.77660413168946  -2.83456306335497
H  -2.64993339024137  1.75009801136456  -3.77380423787270
O  0.45411922867870  0.72296911259512  -6.53866309028156
Cl  -0.24520400127680  2.02024787579221  -3.68710535510494
C  -1.79474630077239  4.15568972799398  -2.87408104300350
C  -2.02049288425923  2.85520309292768  -2.14539949930199
C  -0.70592536582216  2.13476946714721  -2.01535654658999
C  0.36782763198628  3.01256141791868  -1.38978864337348
C  0.24363414308223  4.35161317233990  -1.59990860762974
C  -0.76573822310554  4.96686979197188  -2.56758916992572
H  -2.54633453610162  3.17961565379078  -1.18262046424618
H  -0.56131671308299  1.16744175743627  -1.59177557528619
C  3.25347415237268  0.00332279742948  0.57581500548990
C  3.52022027954138  -0.36823273283886  1.88857191591592
C  3.23127837013125  -0.99040602131518  -0.37602563387568
C  3.98229648021758  -1.65509623250796  2.05973589080475
H  3.36384486381966  0.35481432801387  2.69844347891256
C  4.09189231922784  -2.06412742897696  -0.26590332763881
C  4.49387904785610  -2.43583909301395  1.01151011672654
H  3.86319008373579  -1.96968131393145  3.06911949785300
H  4.46529875424236  -2.66050331208399  -1.08091413290687
Cl  -3.02028605018888  4.79635600230333  -3.94147283152503
Cl  4.93942579028865  -4.06551647331031  0.99980562575255
N  1.10489570579410  2.11944930740880  -0.81551760521482
C  2.27242103323675  2.33601499741192  -0.12517786796971
O  2.84870582759062  3.37540837490640  -0.18005483165188
N  2.76614291288179  1.18584434011395  0.35558805595001
H  0.73306215227834  0.16429687399627  -7.23699824539176
H  3.04787836229003  -0.75310078845379  -1.43387033899093
H  1.12688035766027  4.98763403276758  -1.53363386399029
Cl  -0.12483908461815  6.37861179508485  -2.95729091415207

