%nproc=8
%mem=4000MB
#opt=(noeigen,calcfc,ts,recalc=5,maxcyc=200) freq B3LYP/SVP em=GD3BJ

ts-2769.gjf

0 2
C  -1.03522928078949  -1.99990926949337  -6.32182843230565
C  -2.12910983766388  -2.32735450913687  -5.44418094691709
C  -2.15194130263934  -1.62474155488562  -4.22204880351504
C  -1.11097107422741  -0.75305106638228  -3.89050025555487
C  0.04939983915388  -0.53233400837138  -4.72900917886432
C  0.15495410601138  -1.17994268655679  -5.94435281067824
H  -3.01705695966617  -2.83340805457511  -5.73621969884116
H  -2.99634224300225  -1.61870931539768  -3.50158374930633
C  -0.29430455491147  -2.60506610822115  -0.79337040089847
C  -0.14618605586079  -4.06252616444643  -0.46088727611038
C  -1.51892867600169  -1.86652069234713  -0.47173227989617
C  -1.40138328104014  -4.61572508640305  -0.00256881842330
H  0.78398969497548  -4.55022522906118  -0.52891432400608
C  -2.59792844677995  -2.39658927017024  0.10750312599923
C  -2.55443951267740  -3.85294233801436  0.14646992061115
H  -1.53824074631807  -5.64543271616780  0.06277561721752
H  -3.46477613182269  -1.74130615550343  0.24732258237549
Cl  -1.01884735624566  -2.62422225171363  -7.95630284439333
Cl  -4.04798649927428  -4.52412370258220  0.17247087890139
N  -1.14048561886920  0.04211965118127  -2.89898063811190
H  -0.42806735198252  0.65116006094842  -2.56499428849199
C  1.82788083265003  -1.96526392920930  -1.48056068095158
O  2.94965594278377  -2.31251056436542  -1.80457472801020
N  0.68002946778818  -1.75338576687560  -1.25811320604366
H  -1.42431260181263  -0.73950901437578  -0.40697182657493
H  0.90708675210130  0.00764293410150  -4.42161676838145
Cl  1.78287320251023  -1.63133617050188  -6.60797464761734

