%nproc=8
%mem=4000MB
#opt=(noeigen,calcfc,ts,recalc=5,maxcyc=200) freq UB3LYP/SVP em=GD3BJ

ts-499.gjf

0 2
O  -1.70553550390917  6.90682145184811  0.64601277371746
Cl  -0.17108635395798  6.52456323575992  -0.20411908769221
H  -1.83792445810761  6.17018805053421  1.35407060999553
O  -2.00023516779533  6.11404486800789  3.42979812693831
H  -1.10337388433005  6.27429966361868  3.15722589190122

