%nproc=8
%mem=4000MB
#opt=(noeigen,calcfc,ts,recalc=5,maxcyc=200) freq UB3LYP/SVP em=GD3BJ

ts-519.gjf

0 2
O  -0.75420614068759  6.35138720623415  1.76556475842645
Cl  -1.41003667890639  6.02930365638637  0.26563176343064
H  -0.64648495195277  5.46424798682952  2.40951536108571
O  -0.36949639137072  4.50419763556190  3.32726430135323
H  -0.81118696695172  5.01652687690230  4.01247801475891

