%nproc=8
%mem=4000MB
#opt=(noeigen,calcfc,ts,recalc=5,maxcyc=200) freq UB3LYP/SVP em=GD3BJ

ts-539.gjf

0 2
O  0.17480895775671  5.64808025278594  0.76197877081497
Cl  -1.31162085217808  5.75518741542538  1.23764905952199
H  0.52851645969284  5.83099513601029  2.92602372891305
O  0.63837495989857  4.93826994719865  3.56335758480581
H  0.86755315972157  4.13590164799528  2.99860291334589

