%nproc=8
%mem=4000MB
#opt=(noeigen,calcfc,ts,recalc=5,maxcyc=200) freq UB3LYP/SVP em=GD3BJ

ts-559.gjf

0 2
O  -0.05441522745670  4.62681069865647  0.69705452100801
Cl  -0.81631383507979  5.54948977635488  1.75560280783171
H  1.14158830843886  5.29535680458161  3.89101492945312
O  2.04124490027493  5.46719642945296  3.23155931036835
H  1.82387004281895  4.75693850217252  2.61599371064127

