%nproc=8
%mem=4000MB
#opt=(noeigen,calcfc,ts,recalc=5,maxcyc=200) freq B3LYP/SVP em=GD3BJ

ts-2213.gjf

0 1
Cl  4.20770475807101  -4.59931844561931  3.98948366343958
Cl  5.28702570112199  -1.88123059001756  4.88344793582747

