%nproc=8
%mem=4000MB
#opt=(noeigen,calcfc,ts,recalc=5,maxcyc=200) freq B3LYP/SVP em=GD3BJ

ts-3461.gjf

0 2
O  2.62984302998198  -5.36424413908870  -4.37439887925503
Cl  1.01420976554518  -3.03907367441153  -5.48337367779315
H  3.40323314824228  -4.89524645380568  -4.33205801704726
C  2.84321358383105  -4.95253964982154  -1.04635631430520
C  2.32141543753947  -4.23704039897795  -2.04763655855187
C  1.80032863314006  -5.15357573008491  -3.32233823479846
C  1.46791257143229  -6.39402153809092  -2.49648994231708
C  2.63852051404562  -6.98851569747750  -1.82115026923473
C  3.30136704249217  -6.25342517097534  -0.88638340114654
H  1.64984724645081  -3.46785914512665  -1.66177847035228
H  0.90275009593128  -4.66406032018401  -3.75284243897564
Cl  3.28599579422571  -3.78982014151788  0.06307534763188
N  0.24589812159944  -6.74985093195586  -2.32202712069570
H  -0.22022002641970  -7.06490758747679  -1.50426392858862
H  2.74632098238808  -8.06099063763810  -1.77921936970986
Cl  4.02818729950967  -6.73177835980115  0.54332558268490

