%nproc=8
%mem=4000MB
#opt=(noeigen,calcfc,ts,recalc=5,maxcyc=200) freq B3LYP/SVP em=GD3BJ

ts-1456.gjf

0 1
O  0.74796919873696  -4.81174712287028  -3.11351190143445
Cl  -0.67144470134557  -4.60819461769472  -5.26629074878573
H  0.12622081950586  -4.58079951342839  -2.41196813684147

