%nproc=8
%mem=4000MB
#opt=(noeigen,calcfc,ts,recalc=5,maxcyc=200) freq B3LYP/SVP em=GD3BJ

ts-5471.gjf

0 1
Cl  3.22931857465426  0.98297525751524  -3.19067737844523
O  -0.69407491172705  3.89009614036749  -2.31135162723141
C  2.65102288078533  0.33390752315212  -5.83441944204553
C  2.74536776740217  1.55391905161951  -4.96496615272019
C  1.25902824563175  1.88659194483396  -4.78212123077570
C  0.65544053696837  2.71808102855869  -3.81937753786635
C  0.55056896364014  1.30901472305505  -5.78459047514122
C  1.34433794002691  0.34315429563446  -6.37049917684010
H  3.43192536867534  2.27797353225925  -5.40326906362255
Cl  3.79120538833557  -0.86084957442018  -6.21862380543024
N  -0.07633135071606  3.23785650648697  -3.08947444683590
H  -0.53724375774028  1.32413582463887  -5.86367743887301
Cl  0.92388069555393  -0.71555118423166  -7.58762849003002

