%nproc=8
%mem=4000MB
#opt=(noeigen,calcfc,ts,recalc=5,maxcyc=200) freq B3LYP/SVP em=GD3BJ

ts-2430.gjf

0 2
Cl  -4.31016788502248  0.52152090424367  -3.38034629351983
O  -3.72790765687826  0.86463373800155  -0.63976433241103
H  -4.06247001179844  0.61494358308844  -2.02565179645714
C  0.34724424116127  -1.89510392748541  2.61823277381439
C  -0.70135386913699  -1.67605042956229  1.64489519071248
C  -0.95228672851076  -0.36213272474720  1.36672067248135
C  -1.71276290534614  0.39204734871797  0.48425194318808
C  -0.16954215813782  0.29995887892229  2.43219814350306
C  0.48764114732669  -0.66388643632971  3.10132620683761
H  -1.07573453716663  -2.53743972909530  1.13029523538893
Cl  1.65369703688549  -3.17279865939061  2.38149461748847
N  -2.55288638263405  0.27184916070029  -0.44944852040229
H  -0.09859472466041  1.39513753362765  2.60233302692201
Cl  1.61548025094226  -0.22258897785684  4.20163309736746

