%nproc=8
%mem=4000MB
#opt=(noeigen,calcfc,ts,recalc=5,maxcyc=200) freq B3LYP/SVP em=GD3BJ

ts-2460.gjf

0 2
Cl  -4.77372398738702  0.03924519351713  -3.51620532463569
O  -3.15173942938215  1.81005276571306  -0.72042225511623
H  -4.47408936711645  1.17745980579068  -4.10183606177789
C  -0.66165066520977  -1.76922684113930  2.97856276170057
C  -1.53512268608401  -1.73023266584920  1.96201873359784
C  -2.35265254180029  -0.45416661878973  2.03756791444108
C  -2.53820616637326  0.32717399409667  0.92918946170244
C  -2.22495827225926  -0.08607736458490  3.40483495398522
C  -1.08215678605575  -0.71224332925669  3.93921011245547
H  -1.92000082037973  -2.34022096236282  1.20729221940313
Cl  0.59583509170358  -3.02335078475787  2.80713026060578
N  -2.63328326888241  1.26369409465612  0.16847258587041
H  -2.69700684278695  0.86678893583549  3.63477135979384
Cl  -0.35676129538203  -0.64738841424480  5.63846435964125

