%nproc=8
%mem=4000MB
#opt=(noeigen,calcfc,ts,recalc=5,maxcyc=200) freq B3LYP/SVP em=GD3BJ

ts-409.gjf

0 1
O  1.88663173953951  -2.46774706436060  3.38793990544733
Cl  2.51527739824860  -2.24517708811409  5.02328138920411
H  2.64790211959465  -2.91872731124085  2.97748498057086

