%nproc=8
%mem=4000MB
#opt=(noeigen,calcfc,ts,recalc=5,maxcyc=200) freq B3LYP/SVP em=GD3BJ

ts-447.gjf

0 1
O  1.75179139969736  4.01611329168956  -1.41861812358773
Cl  2.24299331331401  3.35903927727016  -5.32605559088102
H  1.09642873924412  4.11356448104867  -2.10412739548253

