%nproc=8
%mem=4000MB
#opt=(noeigen,calcfc,ts,recalc=5,maxcyc=200) freq B3LYP/SVP em=GD3BJ

ts-45.gjf

0 1
O  2.15268949761105  3.10478066545155  -6.65386279874533
Cl  -1.29943144161734  4.21570832556354  -1.41583675347933
H  1.66741026991768  2.48400544067100  -6.07950833649038
C  5.04381232039219  1.61460601686918  -1.68280130611514
C  4.24254266294999  2.20456901675793  -0.72289496044436
C  2.89791280448119  2.19813869333902  -0.90970309775750
C  2.28189624208198  1.28182819881892  -1.87110451303425
C  3.14174999360913  0.67685025568733  -2.82642298116520
C  4.45830207964381  0.99491631756644  -2.82452148099386
H  4.66944825338969  2.82741101475050  0.00194006675052
H  2.25497245061226  2.82261402072977  -0.30374690125930
C  -2.12361926477009  1.24874982106301  -3.05344350313160
C  -2.27296125924116  -0.11794077962235  -2.78211474226248
C  -3.27935819276931  2.03268216444020  -3.38588033698702
C  -3.46714405733445  -0.71375118463721  -2.99036400567150
H  -1.38601774118905  -0.67148447979390  -2.53189104103225
C  -4.53702672303628  1.46956754499084  -3.36876095453544
C  -4.59249285228194  0.06817051355555  -3.24001190764742
H  -3.43617530865442  -1.84165756953109  -2.90482708462305
H  -5.44232693079882  1.96973650387060  -3.64111066789407
Cl  6.74218664054289  1.30950579852092  -1.35201584023177
Cl  -6.02995335557035  -0.86254983067815  -2.92560739564156
N  0.98740158626827  1.28184419079501  -1.95775123415427
H  2.62852128406867  3.62807660077250  -5.91218227979480
C  0.18674497316706  0.90513567059309  -2.99630806909673
O  0.26270578987570  -0.04034404919712  -3.70378629442135
N  -0.91085862782403  1.77000470192526  -2.94292963836825
H  -0.94453924088516  2.76382476740363  -2.61170928119441
H  -3.26762831990477  3.02341065357032  -3.80267829074545
H  2.79292489595647  0.05283703488322  -3.66791900981509
Cl  5.43060212404806  0.49982090976125  -4.17025589880031

